*SPEF "ieee 1481-1999"
*DESIGN "user_project_wrapper"
*DATE "09:07:45 Saturday November 29, 2025"
*VENDOR "The OpenROAD Project"
*PROGRAM "OpenROAD"
*VERSION "edf00dff99f6c40d67a30c0e22a8191c5d2ed9d6"
*DESIGN_FLOW "NAME_SCOPE LOCAL" "PIN_CAP NONE"
*DIVIDER /
*DELIMITER :
*BUS_DELIMITER []
*T_UNIT 1 NS
*C_UNIT 1 PF
*R_UNIT 1 OHM
*L_UNIT 1 HENRY

*NAME_MAP
*1 analog_io[0]
*2 analog_io[10]
*3 analog_io[11]
*4 analog_io[12]
*5 analog_io[13]
*6 analog_io[14]
*7 analog_io[15]
*8 analog_io[16]
*9 analog_io[17]
*10 analog_io[18]
*11 analog_io[19]
*12 analog_io[1]
*13 analog_io[20]
*14 analog_io[21]
*15 analog_io[22]
*16 analog_io[23]
*17 analog_io[24]
*18 analog_io[25]
*19 analog_io[26]
*20 analog_io[27]
*21 analog_io[28]
*22 analog_io[2]
*23 analog_io[3]
*24 analog_io[4]
*25 analog_io[5]
*26 analog_io[6]
*27 analog_io[7]
*28 analog_io[8]
*29 analog_io[9]
*30 io_in[0]
*31 io_in[10]
*32 io_in[11]
*33 io_in[12]
*34 io_in[13]
*35 io_in[14]
*36 io_in[15]
*37 io_in[16]
*38 io_in[17]
*39 io_in[18]
*40 io_in[19]
*41 io_in[1]
*42 io_in[20]
*43 io_in[21]
*44 io_in[22]
*45 io_in[23]
*46 io_in[24]
*47 io_in[25]
*48 io_in[26]
*49 io_in[27]
*50 io_in[28]
*51 io_in[29]
*52 io_in[2]
*53 io_in[30]
*54 io_in[31]
*55 io_in[32]
*56 io_in[33]
*57 io_in[34]
*58 io_in[35]
*59 io_in[36]
*60 io_in[37]
*61 io_in[3]
*62 io_in[4]
*63 io_in[5]
*64 io_in[6]
*65 io_in[7]
*66 io_in[8]
*67 io_in[9]
*68 io_oeb[0]
*69 io_oeb[10]
*70 io_oeb[11]
*71 io_oeb[12]
*72 io_oeb[13]
*73 io_oeb[14]
*74 io_oeb[15]
*75 io_oeb[16]
*76 io_oeb[17]
*77 io_oeb[18]
*78 io_oeb[19]
*79 io_oeb[1]
*80 io_oeb[20]
*81 io_oeb[21]
*82 io_oeb[22]
*83 io_oeb[23]
*84 io_oeb[24]
*85 io_oeb[25]
*86 io_oeb[26]
*87 io_oeb[27]
*88 io_oeb[28]
*89 io_oeb[29]
*90 io_oeb[2]
*91 io_oeb[30]
*92 io_oeb[31]
*93 io_oeb[32]
*94 io_oeb[33]
*95 io_oeb[34]
*96 io_oeb[35]
*97 io_oeb[36]
*98 io_oeb[37]
*99 io_oeb[3]
*100 io_oeb[4]
*101 io_oeb[5]
*102 io_oeb[6]
*103 io_oeb[7]
*104 io_oeb[8]
*105 io_oeb[9]
*106 io_out[0]
*107 io_out[10]
*108 io_out[11]
*109 io_out[12]
*110 io_out[13]
*111 io_out[14]
*112 io_out[15]
*113 io_out[16]
*114 io_out[17]
*115 io_out[18]
*116 io_out[19]
*117 io_out[1]
*118 io_out[20]
*119 io_out[21]
*120 io_out[22]
*121 io_out[23]
*122 io_out[24]
*123 io_out[25]
*124 io_out[26]
*125 io_out[27]
*126 io_out[28]
*127 io_out[29]
*128 io_out[2]
*129 io_out[30]
*130 io_out[31]
*131 io_out[32]
*132 io_out[33]
*133 io_out[34]
*134 io_out[35]
*135 io_out[36]
*136 io_out[37]
*137 io_out[3]
*138 io_out[4]
*139 io_out[5]
*140 io_out[6]
*141 io_out[7]
*142 io_out[8]
*143 io_out[9]
*144 la_data_in[0]
*145 la_data_in[100]
*146 la_data_in[101]
*147 la_data_in[102]
*148 la_data_in[103]
*149 la_data_in[104]
*150 la_data_in[105]
*151 la_data_in[106]
*152 la_data_in[107]
*153 la_data_in[108]
*154 la_data_in[109]
*155 la_data_in[10]
*156 la_data_in[110]
*157 la_data_in[111]
*158 la_data_in[112]
*159 la_data_in[113]
*160 la_data_in[114]
*161 la_data_in[115]
*162 la_data_in[116]
*163 la_data_in[117]
*164 la_data_in[118]
*165 la_data_in[119]
*166 la_data_in[11]
*167 la_data_in[120]
*168 la_data_in[121]
*169 la_data_in[122]
*170 la_data_in[123]
*171 la_data_in[124]
*172 la_data_in[125]
*173 la_data_in[126]
*174 la_data_in[127]
*175 la_data_in[12]
*176 la_data_in[13]
*177 la_data_in[14]
*178 la_data_in[15]
*179 la_data_in[16]
*180 la_data_in[17]
*181 la_data_in[18]
*182 la_data_in[19]
*183 la_data_in[1]
*184 la_data_in[20]
*185 la_data_in[21]
*186 la_data_in[22]
*187 la_data_in[23]
*188 la_data_in[24]
*189 la_data_in[25]
*190 la_data_in[26]
*191 la_data_in[27]
*192 la_data_in[28]
*193 la_data_in[29]
*194 la_data_in[2]
*195 la_data_in[30]
*196 la_data_in[31]
*197 la_data_in[32]
*198 la_data_in[33]
*199 la_data_in[34]
*200 la_data_in[35]
*201 la_data_in[36]
*202 la_data_in[37]
*203 la_data_in[38]
*204 la_data_in[39]
*205 la_data_in[3]
*206 la_data_in[40]
*207 la_data_in[41]
*208 la_data_in[42]
*209 la_data_in[43]
*210 la_data_in[44]
*211 la_data_in[45]
*212 la_data_in[46]
*213 la_data_in[47]
*214 la_data_in[48]
*215 la_data_in[49]
*216 la_data_in[4]
*217 la_data_in[50]
*218 la_data_in[51]
*219 la_data_in[52]
*220 la_data_in[53]
*221 la_data_in[54]
*222 la_data_in[55]
*223 la_data_in[56]
*224 la_data_in[57]
*225 la_data_in[58]
*226 la_data_in[59]
*227 la_data_in[5]
*228 la_data_in[60]
*229 la_data_in[61]
*230 la_data_in[62]
*231 la_data_in[63]
*232 la_data_in[64]
*233 la_data_in[65]
*234 la_data_in[66]
*235 la_data_in[67]
*236 la_data_in[68]
*237 la_data_in[69]
*238 la_data_in[6]
*239 la_data_in[70]
*240 la_data_in[71]
*241 la_data_in[72]
*242 la_data_in[73]
*243 la_data_in[74]
*244 la_data_in[75]
*245 la_data_in[76]
*246 la_data_in[77]
*247 la_data_in[78]
*248 la_data_in[79]
*249 la_data_in[7]
*250 la_data_in[80]
*251 la_data_in[81]
*252 la_data_in[82]
*253 la_data_in[83]
*254 la_data_in[84]
*255 la_data_in[85]
*256 la_data_in[86]
*257 la_data_in[87]
*258 la_data_in[88]
*259 la_data_in[89]
*260 la_data_in[8]
*261 la_data_in[90]
*262 la_data_in[91]
*263 la_data_in[92]
*264 la_data_in[93]
*265 la_data_in[94]
*266 la_data_in[95]
*267 la_data_in[96]
*268 la_data_in[97]
*269 la_data_in[98]
*270 la_data_in[99]
*271 la_data_in[9]
*272 la_data_out[0]
*273 la_data_out[100]
*274 la_data_out[101]
*275 la_data_out[102]
*276 la_data_out[103]
*277 la_data_out[104]
*278 la_data_out[105]
*279 la_data_out[106]
*280 la_data_out[107]
*281 la_data_out[108]
*282 la_data_out[109]
*283 la_data_out[10]
*284 la_data_out[110]
*285 la_data_out[111]
*286 la_data_out[112]
*287 la_data_out[113]
*288 la_data_out[114]
*289 la_data_out[115]
*290 la_data_out[116]
*291 la_data_out[117]
*292 la_data_out[118]
*293 la_data_out[119]
*294 la_data_out[11]
*295 la_data_out[120]
*296 la_data_out[121]
*297 la_data_out[122]
*298 la_data_out[123]
*299 la_data_out[124]
*300 la_data_out[125]
*301 la_data_out[126]
*302 la_data_out[127]
*303 la_data_out[12]
*304 la_data_out[13]
*305 la_data_out[14]
*306 la_data_out[15]
*307 la_data_out[16]
*308 la_data_out[17]
*309 la_data_out[18]
*310 la_data_out[19]
*311 la_data_out[1]
*312 la_data_out[20]
*313 la_data_out[21]
*314 la_data_out[22]
*315 la_data_out[23]
*316 la_data_out[24]
*317 la_data_out[25]
*318 la_data_out[26]
*319 la_data_out[27]
*320 la_data_out[28]
*321 la_data_out[29]
*322 la_data_out[2]
*323 la_data_out[30]
*324 la_data_out[31]
*325 la_data_out[32]
*326 la_data_out[33]
*327 la_data_out[34]
*328 la_data_out[35]
*329 la_data_out[36]
*330 la_data_out[37]
*331 la_data_out[38]
*332 la_data_out[39]
*333 la_data_out[3]
*334 la_data_out[40]
*335 la_data_out[41]
*336 la_data_out[42]
*337 la_data_out[43]
*338 la_data_out[44]
*339 la_data_out[45]
*340 la_data_out[46]
*341 la_data_out[47]
*342 la_data_out[48]
*343 la_data_out[49]
*344 la_data_out[4]
*345 la_data_out[50]
*346 la_data_out[51]
*347 la_data_out[52]
*348 la_data_out[53]
*349 la_data_out[54]
*350 la_data_out[55]
*351 la_data_out[56]
*352 la_data_out[57]
*353 la_data_out[58]
*354 la_data_out[59]
*355 la_data_out[5]
*356 la_data_out[60]
*357 la_data_out[61]
*358 la_data_out[62]
*359 la_data_out[63]
*360 la_data_out[64]
*361 la_data_out[65]
*362 la_data_out[66]
*363 la_data_out[67]
*364 la_data_out[68]
*365 la_data_out[69]
*366 la_data_out[6]
*367 la_data_out[70]
*368 la_data_out[71]
*369 la_data_out[72]
*370 la_data_out[73]
*371 la_data_out[74]
*372 la_data_out[75]
*373 la_data_out[76]
*374 la_data_out[77]
*375 la_data_out[78]
*376 la_data_out[79]
*377 la_data_out[7]
*378 la_data_out[80]
*379 la_data_out[81]
*380 la_data_out[82]
*381 la_data_out[83]
*382 la_data_out[84]
*383 la_data_out[85]
*384 la_data_out[86]
*385 la_data_out[87]
*386 la_data_out[88]
*387 la_data_out[89]
*388 la_data_out[8]
*389 la_data_out[90]
*390 la_data_out[91]
*391 la_data_out[92]
*392 la_data_out[93]
*393 la_data_out[94]
*394 la_data_out[95]
*395 la_data_out[96]
*396 la_data_out[97]
*397 la_data_out[98]
*398 la_data_out[99]
*399 la_data_out[9]
*400 la_oenb[0]
*401 la_oenb[100]
*402 la_oenb[101]
*403 la_oenb[102]
*404 la_oenb[103]
*405 la_oenb[104]
*406 la_oenb[105]
*407 la_oenb[106]
*408 la_oenb[107]
*409 la_oenb[108]
*410 la_oenb[109]
*411 la_oenb[10]
*412 la_oenb[110]
*413 la_oenb[111]
*414 la_oenb[112]
*415 la_oenb[113]
*416 la_oenb[114]
*417 la_oenb[115]
*418 la_oenb[116]
*419 la_oenb[117]
*420 la_oenb[118]
*421 la_oenb[119]
*422 la_oenb[11]
*423 la_oenb[120]
*424 la_oenb[121]
*425 la_oenb[122]
*426 la_oenb[123]
*427 la_oenb[124]
*428 la_oenb[125]
*429 la_oenb[126]
*430 la_oenb[127]
*431 la_oenb[12]
*432 la_oenb[13]
*433 la_oenb[14]
*434 la_oenb[15]
*435 la_oenb[16]
*436 la_oenb[17]
*437 la_oenb[18]
*438 la_oenb[19]
*439 la_oenb[1]
*440 la_oenb[20]
*441 la_oenb[21]
*442 la_oenb[22]
*443 la_oenb[23]
*444 la_oenb[24]
*445 la_oenb[25]
*446 la_oenb[26]
*447 la_oenb[27]
*448 la_oenb[28]
*449 la_oenb[29]
*450 la_oenb[2]
*451 la_oenb[30]
*452 la_oenb[31]
*453 la_oenb[32]
*454 la_oenb[33]
*455 la_oenb[34]
*456 la_oenb[35]
*457 la_oenb[36]
*458 la_oenb[37]
*459 la_oenb[38]
*460 la_oenb[39]
*461 la_oenb[3]
*462 la_oenb[40]
*463 la_oenb[41]
*464 la_oenb[42]
*465 la_oenb[43]
*466 la_oenb[44]
*467 la_oenb[45]
*468 la_oenb[46]
*469 la_oenb[47]
*470 la_oenb[48]
*471 la_oenb[49]
*472 la_oenb[4]
*473 la_oenb[50]
*474 la_oenb[51]
*475 la_oenb[52]
*476 la_oenb[53]
*477 la_oenb[54]
*478 la_oenb[55]
*479 la_oenb[56]
*480 la_oenb[57]
*481 la_oenb[58]
*482 la_oenb[59]
*483 la_oenb[5]
*484 la_oenb[60]
*485 la_oenb[61]
*486 la_oenb[62]
*487 la_oenb[63]
*488 la_oenb[64]
*489 la_oenb[65]
*490 la_oenb[66]
*491 la_oenb[67]
*492 la_oenb[68]
*493 la_oenb[69]
*494 la_oenb[6]
*495 la_oenb[70]
*496 la_oenb[71]
*497 la_oenb[72]
*498 la_oenb[73]
*499 la_oenb[74]
*500 la_oenb[75]
*501 la_oenb[76]
*502 la_oenb[77]
*503 la_oenb[78]
*504 la_oenb[79]
*505 la_oenb[7]
*506 la_oenb[80]
*507 la_oenb[81]
*508 la_oenb[82]
*509 la_oenb[83]
*510 la_oenb[84]
*511 la_oenb[85]
*512 la_oenb[86]
*513 la_oenb[87]
*514 la_oenb[88]
*515 la_oenb[89]
*516 la_oenb[8]
*517 la_oenb[90]
*518 la_oenb[91]
*519 la_oenb[92]
*520 la_oenb[93]
*521 la_oenb[94]
*522 la_oenb[95]
*523 la_oenb[96]
*524 la_oenb[97]
*525 la_oenb[98]
*526 la_oenb[99]
*527 la_oenb[9]
*528 user_clock2
*529 user_irq[0]
*530 user_irq[1]
*531 user_irq[2]
*540 wb_clk_i
*541 wb_rst_i
*542 wbs_ack_o
*543 wbs_adr_i[0]
*544 wbs_adr_i[10]
*545 wbs_adr_i[11]
*546 wbs_adr_i[12]
*547 wbs_adr_i[13]
*548 wbs_adr_i[14]
*549 wbs_adr_i[15]
*550 wbs_adr_i[16]
*551 wbs_adr_i[17]
*552 wbs_adr_i[18]
*553 wbs_adr_i[19]
*554 wbs_adr_i[1]
*555 wbs_adr_i[20]
*556 wbs_adr_i[21]
*557 wbs_adr_i[22]
*558 wbs_adr_i[23]
*559 wbs_adr_i[24]
*560 wbs_adr_i[25]
*561 wbs_adr_i[26]
*562 wbs_adr_i[27]
*563 wbs_adr_i[28]
*564 wbs_adr_i[29]
*565 wbs_adr_i[2]
*566 wbs_adr_i[30]
*567 wbs_adr_i[31]
*568 wbs_adr_i[3]
*569 wbs_adr_i[4]
*570 wbs_adr_i[5]
*571 wbs_adr_i[6]
*572 wbs_adr_i[7]
*573 wbs_adr_i[8]
*574 wbs_adr_i[9]
*575 wbs_cyc_i
*576 wbs_dat_i[0]
*577 wbs_dat_i[10]
*578 wbs_dat_i[11]
*579 wbs_dat_i[12]
*580 wbs_dat_i[13]
*581 wbs_dat_i[14]
*582 wbs_dat_i[15]
*583 wbs_dat_i[16]
*584 wbs_dat_i[17]
*585 wbs_dat_i[18]
*586 wbs_dat_i[19]
*587 wbs_dat_i[1]
*588 wbs_dat_i[20]
*589 wbs_dat_i[21]
*590 wbs_dat_i[22]
*591 wbs_dat_i[23]
*592 wbs_dat_i[24]
*593 wbs_dat_i[25]
*594 wbs_dat_i[26]
*595 wbs_dat_i[27]
*596 wbs_dat_i[28]
*597 wbs_dat_i[29]
*598 wbs_dat_i[2]
*599 wbs_dat_i[30]
*600 wbs_dat_i[31]
*601 wbs_dat_i[3]
*602 wbs_dat_i[4]
*603 wbs_dat_i[5]
*604 wbs_dat_i[6]
*605 wbs_dat_i[7]
*606 wbs_dat_i[8]
*607 wbs_dat_i[9]
*608 wbs_dat_o[0]
*609 wbs_dat_o[10]
*610 wbs_dat_o[11]
*611 wbs_dat_o[12]
*612 wbs_dat_o[13]
*613 wbs_dat_o[14]
*614 wbs_dat_o[15]
*615 wbs_dat_o[16]
*616 wbs_dat_o[17]
*617 wbs_dat_o[18]
*618 wbs_dat_o[19]
*619 wbs_dat_o[1]
*620 wbs_dat_o[20]
*621 wbs_dat_o[21]
*622 wbs_dat_o[22]
*623 wbs_dat_o[23]
*624 wbs_dat_o[24]
*625 wbs_dat_o[25]
*626 wbs_dat_o[26]
*627 wbs_dat_o[27]
*628 wbs_dat_o[28]
*629 wbs_dat_o[29]
*630 wbs_dat_o[2]
*631 wbs_dat_o[30]
*632 wbs_dat_o[31]
*633 wbs_dat_o[3]
*634 wbs_dat_o[4]
*635 wbs_dat_o[5]
*636 wbs_dat_o[6]
*637 wbs_dat_o[7]
*638 wbs_dat_o[8]
*639 wbs_dat_o[9]
*640 wbs_sel_i[0]
*641 wbs_sel_i[1]
*642 wbs_sel_i[2]
*643 wbs_sel_i[3]
*644 wbs_stb_i
*645 wbs_we_i
*646 dffram_addr\[0\]
*647 dffram_addr\[1\]
*648 dffram_addr\[2\]
*649 dffram_addr\[3\]
*650 dffram_addr\[4\]
*651 dffram_addr\[5\]
*652 dffram_addr\[6\]
*653 dffram_addr\[7\]
*654 dffram_addr\[8\]
*655 dffram_en
*656 dffram_rdata\[0\]
*657 dffram_rdata\[10\]
*658 dffram_rdata\[11\]
*659 dffram_rdata\[12\]
*660 dffram_rdata\[13\]
*661 dffram_rdata\[14\]
*662 dffram_rdata\[15\]
*663 dffram_rdata\[16\]
*664 dffram_rdata\[17\]
*665 dffram_rdata\[18\]
*666 dffram_rdata\[19\]
*667 dffram_rdata\[1\]
*668 dffram_rdata\[20\]
*669 dffram_rdata\[21\]
*670 dffram_rdata\[22\]
*671 dffram_rdata\[23\]
*672 dffram_rdata\[24\]
*673 dffram_rdata\[25\]
*674 dffram_rdata\[26\]
*675 dffram_rdata\[27\]
*676 dffram_rdata\[28\]
*677 dffram_rdata\[29\]
*678 dffram_rdata\[2\]
*679 dffram_rdata\[30\]
*680 dffram_rdata\[31\]
*681 dffram_rdata\[3\]
*682 dffram_rdata\[4\]
*683 dffram_rdata\[5\]
*684 dffram_rdata\[6\]
*685 dffram_rdata\[7\]
*686 dffram_rdata\[8\]
*687 dffram_rdata\[9\]
*688 dffram_wdata\[0\]
*689 dffram_wdata\[10\]
*690 dffram_wdata\[11\]
*691 dffram_wdata\[12\]
*692 dffram_wdata\[13\]
*693 dffram_wdata\[14\]
*694 dffram_wdata\[15\]
*695 dffram_wdata\[16\]
*696 dffram_wdata\[17\]
*697 dffram_wdata\[18\]
*698 dffram_wdata\[19\]
*699 dffram_wdata\[1\]
*700 dffram_wdata\[20\]
*701 dffram_wdata\[21\]
*702 dffram_wdata\[22\]
*703 dffram_wdata\[23\]
*704 dffram_wdata\[24\]
*705 dffram_wdata\[25\]
*706 dffram_wdata\[26\]
*707 dffram_wdata\[27\]
*708 dffram_wdata\[28\]
*709 dffram_wdata\[29\]
*710 dffram_wdata\[2\]
*711 dffram_wdata\[30\]
*712 dffram_wdata\[31\]
*713 dffram_wdata\[3\]
*714 dffram_wdata\[4\]
*715 dffram_wdata\[5\]
*716 dffram_wdata\[6\]
*717 dffram_wdata\[7\]
*718 dffram_wdata\[8\]
*719 dffram_wdata\[9\]
*720 dffram_we\[0\]
*721 dffram_we\[1\]
*722 dffram_we\[2\]
*723 dffram_we\[3\]
*724 mem_addr\[0\]
*725 mem_addr\[1\]
*726 mem_addr\[2\]
*727 mem_addr\[3\]
*728 mem_addr\[4\]
*729 mem_addr\[5\]
*730 mem_addr\[6\]
*731 mem_addr\[7\]
*732 mem_addr\[8\]
*733 mem_en
*734 mem_rdata\[0\]
*735 mem_rdata\[10\]
*736 mem_rdata\[11\]
*737 mem_rdata\[12\]
*738 mem_rdata\[13\]
*739 mem_rdata\[14\]
*740 mem_rdata\[15\]
*741 mem_rdata\[16\]
*742 mem_rdata\[17\]
*743 mem_rdata\[18\]
*744 mem_rdata\[19\]
*745 mem_rdata\[1\]
*746 mem_rdata\[20\]
*747 mem_rdata\[21\]
*748 mem_rdata\[22\]
*749 mem_rdata\[23\]
*750 mem_rdata\[24\]
*751 mem_rdata\[25\]
*752 mem_rdata\[26\]
*753 mem_rdata\[27\]
*754 mem_rdata\[28\]
*755 mem_rdata\[29\]
*756 mem_rdata\[2\]
*757 mem_rdata\[30\]
*758 mem_rdata\[31\]
*759 mem_rdata\[3\]
*760 mem_rdata\[4\]
*761 mem_rdata\[5\]
*762 mem_rdata\[6\]
*763 mem_rdata\[7\]
*764 mem_rdata\[8\]
*765 mem_rdata\[9\]
*766 mem_wdata\[0\]
*767 mem_wdata\[10\]
*768 mem_wdata\[11\]
*769 mem_wdata\[12\]
*770 mem_wdata\[13\]
*771 mem_wdata\[14\]
*772 mem_wdata\[15\]
*773 mem_wdata\[16\]
*774 mem_wdata\[17\]
*775 mem_wdata\[18\]
*776 mem_wdata\[19\]
*777 mem_wdata\[1\]
*778 mem_wdata\[20\]
*779 mem_wdata\[21\]
*780 mem_wdata\[22\]
*781 mem_wdata\[23\]
*782 mem_wdata\[24\]
*783 mem_wdata\[25\]
*784 mem_wdata\[26\]
*785 mem_wdata\[27\]
*786 mem_wdata\[28\]
*787 mem_wdata\[29\]
*788 mem_wdata\[2\]
*789 mem_wdata\[30\]
*790 mem_wdata\[31\]
*791 mem_wdata\[3\]
*792 mem_wdata\[4\]
*793 mem_wdata\[5\]
*794 mem_wdata\[6\]
*795 mem_wdata\[7\]
*796 mem_wdata\[8\]
*797 mem_wdata\[9\]
*798 mem_we\[0\]
*799 mem_we\[1\]
*800 mem_we\[2\]
*801 mem_we\[3\]
*802 u_dffram
*803 u_memory_arb
*804 u_soc

*PORTS
analog_io[0] I
analog_io[10] I
analog_io[11] I
analog_io[12] I
analog_io[13] I
analog_io[14] I
analog_io[15] I
analog_io[16] I
analog_io[17] I
analog_io[18] I
analog_io[19] I
analog_io[1] I
analog_io[20] I
analog_io[21] I
analog_io[22] I
analog_io[23] I
analog_io[24] I
analog_io[25] I
analog_io[26] I
analog_io[27] I
analog_io[28] I
analog_io[2] I
analog_io[3] I
analog_io[4] I
analog_io[5] I
analog_io[6] I
analog_io[7] I
analog_io[8] I
analog_io[9] I
io_in[0] I
io_in[10] I
io_in[11] I
io_in[12] I
io_in[13] I
io_in[14] I
io_in[15] I
io_in[16] I
io_in[17] I
io_in[18] I
io_in[19] I
io_in[1] I
io_in[20] I
io_in[21] I
io_in[22] I
io_in[23] I
io_in[24] I
io_in[25] I
io_in[26] I
io_in[27] I
io_in[28] I
io_in[29] I
io_in[2] I
io_in[30] I
io_in[31] I
io_in[32] I
io_in[33] I
io_in[34] I
io_in[35] I
io_in[36] I
io_in[37] I
io_in[3] I
io_in[4] I
io_in[5] I
io_in[6] I
io_in[7] I
io_in[8] I
io_in[9] I
io_oeb[0] O
io_oeb[10] O
io_oeb[11] O
io_oeb[12] O
io_oeb[13] O
io_oeb[14] O
io_oeb[15] O
io_oeb[16] O
io_oeb[17] O
io_oeb[18] O
io_oeb[19] O
io_oeb[1] O
io_oeb[20] O
io_oeb[21] O
io_oeb[22] O
io_oeb[23] O
io_oeb[24] O
io_oeb[25] O
io_oeb[26] O
io_oeb[27] O
io_oeb[28] O
io_oeb[29] O
io_oeb[2] O
io_oeb[30] O
io_oeb[31] O
io_oeb[32] O
io_oeb[33] O
io_oeb[34] O
io_oeb[35] O
io_oeb[36] O
io_oeb[37] O
io_oeb[3] O
io_oeb[4] O
io_oeb[5] O
io_oeb[6] O
io_oeb[7] O
io_oeb[8] O
io_oeb[9] O
io_out[0] O
io_out[10] O
io_out[11] O
io_out[12] O
io_out[13] O
io_out[14] O
io_out[15] O
io_out[16] O
io_out[17] O
io_out[18] O
io_out[19] O
io_out[1] O
io_out[20] O
io_out[21] O
io_out[22] O
io_out[23] O
io_out[24] O
io_out[25] O
io_out[26] O
io_out[27] O
io_out[28] O
io_out[29] O
io_out[2] O
io_out[30] O
io_out[31] O
io_out[32] O
io_out[33] O
io_out[34] O
io_out[35] O
io_out[36] O
io_out[37] O
io_out[3] O
io_out[4] O
io_out[5] O
io_out[6] O
io_out[7] O
io_out[8] O
io_out[9] O
la_data_in[0] I
la_data_in[100] I
la_data_in[101] I
la_data_in[102] I
la_data_in[103] I
la_data_in[104] I
la_data_in[105] I
la_data_in[106] I
la_data_in[107] I
la_data_in[108] I
la_data_in[109] I
la_data_in[10] I
la_data_in[110] I
la_data_in[111] I
la_data_in[112] I
la_data_in[113] I
la_data_in[114] I
la_data_in[115] I
la_data_in[116] I
la_data_in[117] I
la_data_in[118] I
la_data_in[119] I
la_data_in[11] I
la_data_in[120] I
la_data_in[121] I
la_data_in[122] I
la_data_in[123] I
la_data_in[124] I
la_data_in[125] I
la_data_in[126] I
la_data_in[127] I
la_data_in[12] I
la_data_in[13] I
la_data_in[14] I
la_data_in[15] I
la_data_in[16] I
la_data_in[17] I
la_data_in[18] I
la_data_in[19] I
la_data_in[1] I
la_data_in[20] I
la_data_in[21] I
la_data_in[22] I
la_data_in[23] I
la_data_in[24] I
la_data_in[25] I
la_data_in[26] I
la_data_in[27] I
la_data_in[28] I
la_data_in[29] I
la_data_in[2] I
la_data_in[30] I
la_data_in[31] I
la_data_in[32] I
la_data_in[33] I
la_data_in[34] I
la_data_in[35] I
la_data_in[36] I
la_data_in[37] I
la_data_in[38] I
la_data_in[39] I
la_data_in[3] I
la_data_in[40] I
la_data_in[41] I
la_data_in[42] I
la_data_in[43] I
la_data_in[44] I
la_data_in[45] I
la_data_in[46] I
la_data_in[47] I
la_data_in[48] I
la_data_in[49] I
la_data_in[4] I
la_data_in[50] I
la_data_in[51] I
la_data_in[52] I
la_data_in[53] I
la_data_in[54] I
la_data_in[55] I
la_data_in[56] I
la_data_in[57] I
la_data_in[58] I
la_data_in[59] I
la_data_in[5] I
la_data_in[60] I
la_data_in[61] I
la_data_in[62] I
la_data_in[63] I
la_data_in[64] I
la_data_in[65] I
la_data_in[66] I
la_data_in[67] I
la_data_in[68] I
la_data_in[69] I
la_data_in[6] I
la_data_in[70] I
la_data_in[71] I
la_data_in[72] I
la_data_in[73] I
la_data_in[74] I
la_data_in[75] I
la_data_in[76] I
la_data_in[77] I
la_data_in[78] I
la_data_in[79] I
la_data_in[7] I
la_data_in[80] I
la_data_in[81] I
la_data_in[82] I
la_data_in[83] I
la_data_in[84] I
la_data_in[85] I
la_data_in[86] I
la_data_in[87] I
la_data_in[88] I
la_data_in[89] I
la_data_in[8] I
la_data_in[90] I
la_data_in[91] I
la_data_in[92] I
la_data_in[93] I
la_data_in[94] I
la_data_in[95] I
la_data_in[96] I
la_data_in[97] I
la_data_in[98] I
la_data_in[99] I
la_data_in[9] I
la_data_out[0] O
la_data_out[100] O
la_data_out[101] O
la_data_out[102] O
la_data_out[103] O
la_data_out[104] O
la_data_out[105] O
la_data_out[106] O
la_data_out[107] O
la_data_out[108] O
la_data_out[109] O
la_data_out[10] O
la_data_out[110] O
la_data_out[111] O
la_data_out[112] O
la_data_out[113] O
la_data_out[114] O
la_data_out[115] O
la_data_out[116] O
la_data_out[117] O
la_data_out[118] O
la_data_out[119] O
la_data_out[11] O
la_data_out[120] O
la_data_out[121] O
la_data_out[122] O
la_data_out[123] O
la_data_out[124] O
la_data_out[125] O
la_data_out[126] O
la_data_out[127] O
la_data_out[12] O
la_data_out[13] O
la_data_out[14] O
la_data_out[15] O
la_data_out[16] O
la_data_out[17] O
la_data_out[18] O
la_data_out[19] O
la_data_out[1] O
la_data_out[20] O
la_data_out[21] O
la_data_out[22] O
la_data_out[23] O
la_data_out[24] O
la_data_out[25] O
la_data_out[26] O
la_data_out[27] O
la_data_out[28] O
la_data_out[29] O
la_data_out[2] O
la_data_out[30] O
la_data_out[31] O
la_data_out[32] O
la_data_out[33] O
la_data_out[34] O
la_data_out[35] O
la_data_out[36] O
la_data_out[37] O
la_data_out[38] O
la_data_out[39] O
la_data_out[3] O
la_data_out[40] O
la_data_out[41] O
la_data_out[42] O
la_data_out[43] O
la_data_out[44] O
la_data_out[45] O
la_data_out[46] O
la_data_out[47] O
la_data_out[48] O
la_data_out[49] O
la_data_out[4] O
la_data_out[50] O
la_data_out[51] O
la_data_out[52] O
la_data_out[53] O
la_data_out[54] O
la_data_out[55] O
la_data_out[56] O
la_data_out[57] O
la_data_out[58] O
la_data_out[59] O
la_data_out[5] O
la_data_out[60] O
la_data_out[61] O
la_data_out[62] O
la_data_out[63] O
la_data_out[64] O
la_data_out[65] O
la_data_out[66] O
la_data_out[67] O
la_data_out[68] O
la_data_out[69] O
la_data_out[6] O
la_data_out[70] O
la_data_out[71] O
la_data_out[72] O
la_data_out[73] O
la_data_out[74] O
la_data_out[75] O
la_data_out[76] O
la_data_out[77] O
la_data_out[78] O
la_data_out[79] O
la_data_out[7] O
la_data_out[80] O
la_data_out[81] O
la_data_out[82] O
la_data_out[83] O
la_data_out[84] O
la_data_out[85] O
la_data_out[86] O
la_data_out[87] O
la_data_out[88] O
la_data_out[89] O
la_data_out[8] O
la_data_out[90] O
la_data_out[91] O
la_data_out[92] O
la_data_out[93] O
la_data_out[94] O
la_data_out[95] O
la_data_out[96] O
la_data_out[97] O
la_data_out[98] O
la_data_out[99] O
la_data_out[9] O
la_oenb[0] I
la_oenb[100] I
la_oenb[101] I
la_oenb[102] I
la_oenb[103] I
la_oenb[104] I
la_oenb[105] I
la_oenb[106] I
la_oenb[107] I
la_oenb[108] I
la_oenb[109] I
la_oenb[10] I
la_oenb[110] I
la_oenb[111] I
la_oenb[112] I
la_oenb[113] I
la_oenb[114] I
la_oenb[115] I
la_oenb[116] I
la_oenb[117] I
la_oenb[118] I
la_oenb[119] I
la_oenb[11] I
la_oenb[120] I
la_oenb[121] I
la_oenb[122] I
la_oenb[123] I
la_oenb[124] I
la_oenb[125] I
la_oenb[126] I
la_oenb[127] I
la_oenb[12] I
la_oenb[13] I
la_oenb[14] I
la_oenb[15] I
la_oenb[16] I
la_oenb[17] I
la_oenb[18] I
la_oenb[19] I
la_oenb[1] I
la_oenb[20] I
la_oenb[21] I
la_oenb[22] I
la_oenb[23] I
la_oenb[24] I
la_oenb[25] I
la_oenb[26] I
la_oenb[27] I
la_oenb[28] I
la_oenb[29] I
la_oenb[2] I
la_oenb[30] I
la_oenb[31] I
la_oenb[32] I
la_oenb[33] I
la_oenb[34] I
la_oenb[35] I
la_oenb[36] I
la_oenb[37] I
la_oenb[38] I
la_oenb[39] I
la_oenb[3] I
la_oenb[40] I
la_oenb[41] I
la_oenb[42] I
la_oenb[43] I
la_oenb[44] I
la_oenb[45] I
la_oenb[46] I
la_oenb[47] I
la_oenb[48] I
la_oenb[49] I
la_oenb[4] I
la_oenb[50] I
la_oenb[51] I
la_oenb[52] I
la_oenb[53] I
la_oenb[54] I
la_oenb[55] I
la_oenb[56] I
la_oenb[57] I
la_oenb[58] I
la_oenb[59] I
la_oenb[5] I
la_oenb[60] I
la_oenb[61] I
la_oenb[62] I
la_oenb[63] I
la_oenb[64] I
la_oenb[65] I
la_oenb[66] I
la_oenb[67] I
la_oenb[68] I
la_oenb[69] I
la_oenb[6] I
la_oenb[70] I
la_oenb[71] I
la_oenb[72] I
la_oenb[73] I
la_oenb[74] I
la_oenb[75] I
la_oenb[76] I
la_oenb[77] I
la_oenb[78] I
la_oenb[79] I
la_oenb[7] I
la_oenb[80] I
la_oenb[81] I
la_oenb[82] I
la_oenb[83] I
la_oenb[84] I
la_oenb[85] I
la_oenb[86] I
la_oenb[87] I
la_oenb[88] I
la_oenb[89] I
la_oenb[8] I
la_oenb[90] I
la_oenb[91] I
la_oenb[92] I
la_oenb[93] I
la_oenb[94] I
la_oenb[95] I
la_oenb[96] I
la_oenb[97] I
la_oenb[98] I
la_oenb[99] I
la_oenb[9] I
user_clock2 I
user_irq[0] O
user_irq[1] O
user_irq[2] O
wb_clk_i I
wb_rst_i I
wbs_ack_o O
wbs_adr_i[0] I
wbs_adr_i[10] I
wbs_adr_i[11] I
wbs_adr_i[12] I
wbs_adr_i[13] I
wbs_adr_i[14] I
wbs_adr_i[15] I
wbs_adr_i[16] I
wbs_adr_i[17] I
wbs_adr_i[18] I
wbs_adr_i[19] I
wbs_adr_i[1] I
wbs_adr_i[20] I
wbs_adr_i[21] I
wbs_adr_i[22] I
wbs_adr_i[23] I
wbs_adr_i[24] I
wbs_adr_i[25] I
wbs_adr_i[26] I
wbs_adr_i[27] I
wbs_adr_i[28] I
wbs_adr_i[29] I
wbs_adr_i[2] I
wbs_adr_i[30] I
wbs_adr_i[31] I
wbs_adr_i[3] I
wbs_adr_i[4] I
wbs_adr_i[5] I
wbs_adr_i[6] I
wbs_adr_i[7] I
wbs_adr_i[8] I
wbs_adr_i[9] I
wbs_cyc_i I
wbs_dat_i[0] I
wbs_dat_i[10] I
wbs_dat_i[11] I
wbs_dat_i[12] I
wbs_dat_i[13] I
wbs_dat_i[14] I
wbs_dat_i[15] I
wbs_dat_i[16] I
wbs_dat_i[17] I
wbs_dat_i[18] I
wbs_dat_i[19] I
wbs_dat_i[1] I
wbs_dat_i[20] I
wbs_dat_i[21] I
wbs_dat_i[22] I
wbs_dat_i[23] I
wbs_dat_i[24] I
wbs_dat_i[25] I
wbs_dat_i[26] I
wbs_dat_i[27] I
wbs_dat_i[28] I
wbs_dat_i[29] I
wbs_dat_i[2] I
wbs_dat_i[30] I
wbs_dat_i[31] I
wbs_dat_i[3] I
wbs_dat_i[4] I
wbs_dat_i[5] I
wbs_dat_i[6] I
wbs_dat_i[7] I
wbs_dat_i[8] I
wbs_dat_i[9] I
wbs_dat_o[0] O
wbs_dat_o[10] O
wbs_dat_o[11] O
wbs_dat_o[12] O
wbs_dat_o[13] O
wbs_dat_o[14] O
wbs_dat_o[15] O
wbs_dat_o[16] O
wbs_dat_o[17] O
wbs_dat_o[18] O
wbs_dat_o[19] O
wbs_dat_o[1] O
wbs_dat_o[20] O
wbs_dat_o[21] O
wbs_dat_o[22] O
wbs_dat_o[23] O
wbs_dat_o[24] O
wbs_dat_o[25] O
wbs_dat_o[26] O
wbs_dat_o[27] O
wbs_dat_o[28] O
wbs_dat_o[29] O
wbs_dat_o[2] O
wbs_dat_o[30] O
wbs_dat_o[31] O
wbs_dat_o[3] O
wbs_dat_o[4] O
wbs_dat_o[5] O
wbs_dat_o[6] O
wbs_dat_o[7] O
wbs_dat_o[8] O
wbs_dat_o[9] O
wbs_sel_i[0] I
wbs_sel_i[1] I
wbs_sel_i[2] I
wbs_sel_i[3] I
wbs_stb_i I
wbs_we_i I

*D_NET *30 0.27835
*CONN
*P io_in[0] I
*I *804:io_in[0] I *D picorv32_soc
*CAP
1 io_in[0] 0.000127168
2 *804:io_in[0] 0.00970122
3 *30:17 0.122304
4 *30:15 0.112603
5 *30:13 0.00986749
6 *30:11 0.00999465
7 *30:13 *106:17 0.0137521
8 *30:17 *678:14 0
9 *30:17 *714:9 0
10 *30:17 *721:9 0
*RES
1 io_in[0] *30:11 8.6104 
2 *30:11 *30:13 44.6096 
3 *30:13 *30:15 8 
4 *30:15 *30:17 372.546 
5 *30:17 *804:io_in[0] 47.9443 
*END

*D_NET *31 0.394405
*CONN
*P io_in[10] I
*I *804:io_in[10] I *D picorv32_soc
*CAP
1 io_in[10] 0.110443
2 *804:io_in[10] 0.00262731
3 *31:9 0.0867592
4 *31:7 0.0841319
5 *31:5 0.110443
6 *31:9 *35:9 0
*RES
1 io_in[10] *31:5 376.639 
2 *31:5 *31:7 8 
3 *31:7 *31:9 288.068 
4 *31:9 *804:io_in[10] 15.5843 
*END

*D_NET *32 0.419615
*CONN
*P io_in[11] I
*I *804:io_in[11] I *D picorv32_soc
*CAP
1 io_in[11] 0.100771
2 *804:io_in[11] 0.0127909
3 *32:9 0.108231
4 *32:7 0.0954406
5 *32:5 0.100771
6 *32:9 *33:9 0
7 *32:9 *103:9 0
8 *32:9 *141:9 0
9 *32:9 *787:18 0.00161038
*RES
1 io_in[11] *32:5 344.525 
2 *32:5 *32:7 8 
3 *32:7 *32:9 330.844 
4 *32:9 *804:io_in[11] 47.6984 
*END

*D_NET *33 0.489664
*CONN
*P io_in[12] I
*I *804:io_in[12] I *D picorv32_soc
*CAP
1 io_in[12] 0.102628
2 *804:io_in[12] 0.0133763
3 *33:9 0.10857
4 *33:7 0.0951937
5 *33:5 0.102628
6 *33:9 *141:9 0.0581972
7 *33:9 *755:13 0.0020378
8 *33:9 *757:13 0.00452991
9 *33:9 *780:13 0.00250372
10 *32:9 *33:9 0
*RES
1 io_in[12] *33:5 343.151 
2 *33:5 *33:7 8 
3 *33:7 *33:9 373.367 
4 *33:9 *804:io_in[12] 49.2552 
*END

*D_NET *34 0.49373
*CONN
*P io_in[13] I
*I *804:io_in[13] I *D picorv32_soc
*CAP
1 io_in[13] 0.113384
2 *804:io_in[13] 0.00197416
3 *34:9 0.113511
4 *34:7 0.111537
5 *34:5 0.113384
6 *34:9 *35:9 0
7 *34:9 *73:9 0
8 *34:9 *140:9 0.0399403
*RES
1 io_in[13] *34:5 379.215 
2 *34:5 *34:7 8 
3 *34:7 *34:9 416.27 
4 *34:9 *804:io_in[13] 13.0083 
*END

*D_NET *35 0.498509
*CONN
*P io_in[14] I
*I *804:io_in[14] I *D picorv32_soc
*CAP
1 io_in[14] 0.112962
2 *804:io_in[14] 0.0023745
3 *35:9 0.135528
4 *35:7 0.133153
5 *35:5 0.112962
6 *35:9 *803:cpu_mem_wdata[15] 0.00153093
7 *35:9 *140:9 0
8 *31:9 *35:9 0
9 *34:9 *35:9 0
*RES
1 io_in[14] *35:5 378.013 
2 *35:5 *35:7 8 
3 *35:7 *35:9 459.047 
4 *35:9 *804:io_in[14] 14.2104 
*END

*D_NET *36 0.746418
*CONN
*P io_in[15] I
*I *804:io_in[15] I *D picorv32_soc
*CAP
1 io_in[15] 0.000205658
2 *804:io_in[15] 2.44249e-05
3 *36:21 0.0237133
4 *36:19 0.0236889
5 *36:17 0.173287
6 *36:15 0.173287
7 *36:13 0.118727
8 *36:11 0.118933
9 *804:io_in[15] *759:17 0
10 *804:io_in[15] *799:19 4.93791e-05
11 *36:17 *661:11 0.0147763
12 *36:17 *662:11 0.0167937
13 *36:17 *663:11 0.0163284
14 *36:17 *665:11 0.0115179
15 *36:17 *666:11 0.0135893
16 *36:17 *669:11 0.0195893
17 *36:17 *671:11 0.00689495
18 *36:17 *672:11 0.00685514
19 *36:17 *673:11 0.00815724
20 *36:21 *112:10 0
*RES
1 io_in[15] *36:11 19.0744 
2 *36:11 *36:13 399.515 
3 *36:13 *36:15 0.891 
4 *36:15 *36:17 53.3509 
5 *36:17 *36:19 0.891 
6 *36:19 *36:21 79.7701 
7 *36:21 *804:io_in[15] 16.0989 
*END

*D_NET *37 0.509368
*CONN
*P io_in[16] I
*I *804:io_in[16] I *D picorv32_soc
*CAP
1 io_in[16] 0.0955863
2 *804:io_in[16] 0.0194463
3 *37:11 0.0194463
4 *37:9 0.101656
5 *37:7 0.101656
6 *37:5 0.0955863
7 *37:9 *38:9 0
8 *37:9 *665:11 0
9 *37:9 *668:11 0.0726519
10 *37:9 *670:11 0.00333937
*RES
1 io_in[16] *37:5 2210.83 
2 *37:5 *37:7 8 
3 *37:7 *37:9 387.315 
4 *37:9 *37:11 8 
5 *37:11 *804:io_in[16] 449.407 
*END

*D_NET *38 0.426792
*CONN
*P io_in[17] I
*I *804:io_in[17] I *D picorv32_soc
*CAP
1 io_in[17] 0.0953176
2 *804:io_in[17] 0.0197394
3 *38:11 0.0197394
4 *38:9 0.098339
5 *38:7 0.098339
6 *38:5 0.0953176
7 *38:9 *39:17 0
8 *37:9 *38:9 0
*RES
1 io_in[17] *38:5 2203.78 
2 *38:5 *38:7 8 
3 *38:7 *38:9 329.784 
4 *38:9 *38:11 8 
5 *38:11 *804:io_in[17] 456.45 
*END

*D_NET *39 0.393489
*CONN
*P io_in[18] I
*I *804:io_in[18] I *D picorv32_soc
*CAP
1 io_in[18] 0.000500906
2 *804:io_in[18] 0.0200462
3 *39:19 0.0200462
4 *39:17 0.0810503
5 *39:15 0.0810503
6 *39:13 0.0947783
7 *39:11 0.0952792
8 *39:11 *113:9 0.000737324
9 *39:17 *40:9 0
10 *38:9 *39:17 0
*RES
1 io_in[18] *39:11 23.0508 
2 *39:11 *39:13 2191.18 
3 *39:13 *39:15 8 
4 *39:15 *39:17 271.051 
5 *39:17 *39:19 8 
6 *39:19 *804:io_in[18] 463.492 
*END

*D_NET *40 0.360466
*CONN
*P io_in[19] I
*I *804:io_in[19] I *D picorv32_soc
*CAP
1 io_in[19] 0.0947494
2 *804:io_in[19] 0.0203547
3 *40:11 0.0203547
4 *40:9 0.0651288
5 *40:7 0.0651288
6 *40:5 0.0947494
7 *40:9 *42:9 0
8 *39:17 *40:9 0
*RES
1 io_in[19] *40:5 2189.7 
2 *40:5 *40:7 8 
3 *40:7 *40:9 214.894 
4 *40:9 *40:11 8 
5 *40:11 *804:io_in[19] 470.535 
*END

*D_NET *41 0.388925
*CONN
*P io_in[1] I
*I *804:io_in[1] I *D picorv32_soc
*CAP
1 io_in[1] 0.0669063
2 *804:io_in[1] 0.00576868
3 *41:9 0.0161483
4 *41:5 0.077286
5 *41:5 *531:14 0.192315
6 *41:5 *655:9 0
7 *41:5 *722:9 0.0305002
*RES
1 io_in[1] *41:5 366.335 
2 *41:5 *41:9 42.7088 
3 *41:9 *804:io_in[1] 25.8883 
*END

*D_NET *42 0.325102
*CONN
*P io_in[20] I
*I *804:io_in[20] I *D picorv32_soc
*CAP
1 io_in[20] 0.0944825
2 *804:io_in[20] 0.0206478
3 *42:11 0.0206478
4 *42:9 0.0474209
5 *42:7 0.0474209
6 *42:5 0.0944825
7 *42:9 *74:9 0
8 *40:9 *42:9 0
*RES
1 io_in[20] *42:5 2182.65 
2 *42:5 *42:7 8 
3 *42:7 *42:9 157.364 
4 *42:9 *42:11 8 
5 *42:11 *804:io_in[20] 477.578 
*END

*D_NET *43 0.312219
*CONN
*P io_in[21] I
*I *804:io_in[21] I *D picorv32_soc
*CAP
1 io_in[21] 0.114131
2 *804:io_in[21] 0.000519804
3 *43:19 0.00631637
4 *43:15 0.00604647
5 *43:9 0.017393
6 *43:7 0.0171431
7 *43:5 0.114131
8 *43:5 *797:13 0.000206495
9 *43:9 *747:19 0.00370279
10 *43:9 *750:27 0.00325589
11 *43:9 *777:9 0
12 *43:9 *793:9 0
13 *43:15 *804:mem_rdata[24] 0.000431352
14 *43:19 *758:27 0.00772504
15 *43:19 *766:25 0.00240342
16 *43:19 *777:17 0.018812
*RES
1 io_in[21] *43:5 2643.43 
2 *43:5 *43:7 15 
3 *43:7 *43:9 360.325 
4 *43:9 *43:15 29.3075 
5 *43:15 *43:19 43.0037 
6 *43:19 *804:io_in[21] 10.6368 
*END

*D_NET *44 0.25787
*CONN
*P io_in[22] I
*I *804:io_in[22] I *D picorv32_soc
*CAP
1 io_in[22] 0.114706
2 *804:io_in[22] 0.000297832
3 *44:9 0.0120385
4 *44:7 0.0117407
5 *44:5 0.114706
6 *44:5 *804:mem_rdata[22] 0.000266774
7 *44:5 *755:27 0
8 *44:5 *779:7 0
9 *44:9 *804:mem_rdata[30] 0.000464768
10 *44:9 *754:43 0.001886
11 *44:9 *777:17 0
12 *44:9 *798:19 0.00176319
*RES
1 io_in[22] *44:5 2654.53 
2 *44:5 *44:7 8 
3 *44:7 *44:9 42.4741 
4 *44:9 *804:io_in[22] 13.7068 
*END

*D_NET *45 0.246247
*CONN
*P io_in[23] I
*I *804:io_in[23] I *D picorv32_soc
*CAP
1 io_in[23] 0.114809
2 *804:io_in[23] 0.00274636
3 *45:5 0.117555
4 *804:io_in[23] *83:6 0.00698319
5 *804:io_in[23] *129:19 0
6 *804:io_in[23] *726:25 0.000620873
7 *804:io_in[23] *727:16 0.000467605
8 *804:io_in[23] *799:25 0.00306409
*RES
1 io_in[23] *45:5 2662.27 
2 *45:5 *804:io_in[23] 31.1685 
*END

*D_NET *46 0.325338
*CONN
*P io_in[24] I
*I *804:io_in[24] I *D picorv32_soc
*CAP
1 io_in[24] 0.0142183
2 *804:io_in[24] 0.000708154
3 *46:15 0.121198
4 *46:13 0.12049
5 *46:11 0.0142183
6 *46:15 *126:19 0.00642663
7 *46:15 *127:9 0.047266
8 *46:15 *745:10 0.000449339
9 *46:15 *798:23 0.000363013
*RES
1 io_in[24] *46:11 47.1613 
2 *46:11 *46:13 8 
3 *46:13 *46:15 465.394 
4 *46:15 *804:io_in[24] 9.74533 
*END

*D_NET *47 0.277151
*CONN
*P io_in[25] I
*I *804:io_in[25] I *D picorv32_soc
*CAP
1 io_in[25] 0.00102145
2 *804:io_in[25] 0.0146386
3 *47:13 0.0146386
4 *47:11 0.122916
5 *47:9 0.123937
*RES
1 io_in[25] *47:9 11.1304 
2 *47:9 *47:11 424.394 
3 *47:11 *47:13 8 
4 *47:13 *804:io_in[25] 45.5373 
*END

*D_NET *48 0.251879
*CONN
*P io_in[26] I
*I *804:io_in[26] I *D picorv32_soc
*CAP
1 io_in[26] 0.00652803
2 *804:io_in[26] 0.00866209
3 *48:15 0.119411
4 *48:13 0.117277
*RES
1 io_in[26] *48:13 29.4013 
2 *48:13 *48:15 383.268 
3 *48:15 *804:io_in[26] 35.5053 
*END

*D_NET *49 0.229021
*CONN
*P io_in[27] I
*I *804:io_in[27] I *D picorv32_soc
*CAP
1 io_in[27] 0.0094186
2 *804:io_in[27] 0.00587928
3 *49:15 0.104437
4 *49:13 0.107976
5 *49:15 *85:9 0
6 *49:15 *91:9 0
7 *49:15 *766:27 0.00131025
*RES
1 io_in[27] *49:13 38.3315 
2 *49:13 *49:15 342.268 
3 *49:15 *804:io_in[27] 26.5752 
*END

*D_NET *50 0.204859
*CONN
*P io_in[28] I
*I *804:io_in[28] I *D picorv32_soc
*CAP
1 io_in[28] 0.00457902
2 *804:io_in[28] 0.0107324
3 *50:11 0.0978505
4 *50:9 0.0916972
5 *50:11 *54:11 0
6 *50:11 *124:9 0
*RES
1 io_in[28] *50:9 22.6365 
2 *50:9 *50:11 301.015 
3 *50:11 *804:io_in[28] 42.0312 
*END

*D_NET *51 0.181229
*CONN
*P io_in[29] I
*I *804:io_in[29] I *D picorv32_soc
*CAP
1 io_in[29] 0.00341291
2 *804:io_in[29] 0.0118622
3 *51:11 0.0872016
4 *51:9 0.0787524
*RES
1 io_in[29] *51:9 18.8584 
2 *51:9 *51:11 260.015 
3 *51:11 *804:io_in[29] 45.8093 
*END

*D_NET *52 0.49301
*CONN
*P io_in[2] I
*I *804:io_in[2] I *D picorv32_soc
*CAP
1 io_in[2] 0.00253036
2 *804:io_in[2] 0.0143667
3 *52:27 0.0182843
4 *52:21 0.0337672
5 *52:19 0.03238
6 *52:19 *62:13 0.000405119
7 *52:19 *62:25 0.00250341
8 *52:19 *63:9 0.00104435
9 *52:19 *90:21 0.000980106
10 *52:19 *99:23 0.00192975
11 *52:19 *100:23 0.000542918
12 *52:19 *138:21 0.000852445
13 *52:19 *139:33 0.00072854
14 *52:21 *63:13 0.183915
15 *52:21 *90:13 0.18374
16 *52:21 *651:16 0.0044457
17 *52:27 *803:cpu_mem_wdata[21] 0.00138885
18 *52:27 *90:11 0.00742865
19 *52:27 *681:13 0.00088832
20 *52:27 *683:15 0.00088832
*RES
1 io_in[2] *52:19 30.4051 
2 *52:19 *52:21 339.058 
3 *52:21 *52:27 33.9536 
4 *52:27 *804:io_in[2] 45.0221 
*END

*D_NET *53 0.157293
*CONN
*P io_in[30] I
*I *804:io_in[30] I *D picorv32_soc
*CAP
1 io_in[30] 0.00761754
2 *804:io_in[30] 0.00756324
3 *53:15 0.0710289
4 *53:13 0.0710832
5 *53:15 *86:9 0
*RES
1 io_in[30] *53:13 31.9773 
2 *53:13 *53:15 219.016 
3 *53:15 *804:io_in[30] 32.9293 
*END

*D_NET *54 0.166535
*CONN
*P io_in[31] I
*I *804:io_in[31] I *D picorv32_soc
*CAP
1 io_in[31] 0.00437091
2 *804:io_in[31] 0.0107844
3 *54:11 0.0487874
4 *54:9 0.042374
5 *54:11 *124:9 0.0602178
6 *50:11 *54:11 0
*RES
1 io_in[31] *54:9 21.6061 
2 *54:9 *54:11 177.89 
3 *54:11 *804:io_in[31] 43.0616 
*END

*D_NET *55 0.130186
*CONN
*P io_in[32] I
*I *804:io_in[32] I *D picorv32_soc
*CAP
1 io_in[32] 0.00559888
2 *804:io_in[32] 0.00958195
3 *55:15 0.0412452
4 *55:13 0.0372622
5 *55:15 *123:9 0.0364978
*RES
1 io_in[32] *55:13 25.6232 
2 *55:13 *55:15 137.017 
3 *55:15 *804:io_in[32] 39.2835 
*END

*D_NET *56 0.0939752
*CONN
*P io_in[33] I
*I *804:io_in[33] I *D picorv32_soc
*CAP
1 io_in[33] 0.00907036
2 *804:io_in[33] 0.00635346
3 *56:15 0.0316189
4 *56:13 0.0343358
5 *56:15 *91:9 0
6 *56:15 *122:9 0.0125966
7 *56:15 *766:27 0
*RES
1 io_in[33] *56:13 35.9272 
2 *56:13 *56:15 95.8907 
3 *56:15 *804:io_in[33] 28.9795 
*END

*D_NET *57 0.0617829
*CONN
*P io_in[34] I
*I *804:io_in[34] I *D picorv32_soc
*CAP
1 io_in[34] 0.00109409
2 *804:io_in[34] 0.0138788
3 *57:13 0.0138788
4 *57:11 0.0159185
5 *57:9 0.0170126
*RES
1 io_in[34] *57:9 11.1304 
2 *57:9 *57:11 55.0181 
3 *57:11 *57:13 8 
4 *57:13 *804:io_in[34] 45.5373 
*END

*D_NET *58 0.0376312
*CONN
*P io_in[35] I
*I *804:io_in[35] I *D picorv32_soc
*CAP
1 io_in[35] 0.00847986
2 *804:io_in[35] 0.0103357
3 *58:13 0.0188156
4 *58:13 *132:5 0
*RES
1 io_in[35] *58:13 44.2744 
2 *58:13 *804:io_in[35] 34.0312 
*END

*D_NET *59 0.0386421
*CONN
*P io_in[36] I
*I *804:io_in[36] I *D picorv32_soc
*CAP
1 io_in[36] 0.0055148
2 *804:io_in[36] 0.0138062
3 *59:13 0.019321
*RES
1 io_in[36] *59:13 34.1645 
2 *59:13 *804:io_in[36] 45.5373 
*END

*D_NET *60 0.0551429
*CONN
*P io_in[37] I
*I *804:io_in[37] I *D picorv32_soc
*CAP
1 io_in[37] 0.00338621
2 *804:io_in[37] 0.0114837
3 *60:11 0.0241852
4 *60:9 0.0160877
*RES
1 io_in[37] *60:9 18.8584 
2 *60:9 *60:11 44.2288 
3 *60:11 *804:io_in[37] 45.8093 
*END

*D_NET *61 0.367742
*CONN
*P io_in[3] I
*I *804:io_in[3] I *D picorv32_soc
*CAP
1 io_in[3] 0.0331817
2 *804:io_in[3] 0.00328969
3 *61:17 0.00597565
4 *61:15 0.00268596
5 *61:13 0.0571687
6 *61:11 0.0571687
7 *61:9 0.00776979
8 *61:7 0.00776979
9 *61:5 0.0331817
10 *804:io_in[3] *731:23 0.000672846
11 *804:io_in[3] *732:13 0.000771601
12 *804:io_in[3] *737:28 0.000680112
13 *804:io_in[3] *739:15 0.0005843
14 *804:io_in[3] *763:25 0.000779935
15 *804:io_in[3] *764:13 0
16 *61:9 *679:23 0.0223433
17 *61:13 *63:13 0.000109665
18 *61:13 *79:10 0
19 *61:13 *90:13 0.00126971
20 *61:13 *128:21 0.120889
21 *61:13 *137:15 0
22 *61:13 *540:44 0
23 *61:13 *651:16 0.0044457
24 *61:13 *653:19 0
25 *61:13 *654:9 0
26 *61:13 *689:9 0
27 *61:13 *690:11 0
28 *61:13 *691:11 0
29 *61:17 *137:11 0.00684354
30 *61:17 *738:23 0.000160515
31 *61:17 *761:21 0
*RES
1 io_in[3] *61:5 112.47 
2 *61:5 *61:7 8 
3 *61:7 *61:9 283.972 
4 *61:9 *61:11 8 
5 *61:11 *61:13 271.395 
6 *61:13 *61:15 8 
7 *61:15 *61:17 92.4064 
8 *61:17 *804:io_in[3] 33.5181 
*END

*D_NET *62 0.45106
*CONN
*P io_in[4] I
*I *804:io_in[4] I *D picorv32_soc
*CAP
1 io_in[4] 0.000312512
2 *804:io_in[4] 0.0102336
3 *62:29 0.12585
4 *62:25 0.117698
5 *62:13 0.0225796
6 *62:11 0.0208102
7 *804:io_in[4] *106:11 0.000123198
8 *62:13 *99:23 0.0029642
9 *62:25 *99:21 0.000155442
10 *62:25 *100:21 0
11 *62:25 *138:21 0.00027497
12 *62:25 *138:27 1.9731e-05
13 *62:29 *99:15 0.14713
14 *52:19 *62:13 0.000405119
15 *52:19 *62:25 0.00250341
*RES
1 io_in[4] *62:11 8.95387 
2 *62:11 *62:13 76.1563 
3 *62:13 *62:25 25.5337 
4 *62:25 *62:29 45.8021 
5 *62:29 *804:io_in[4] 41.4077 
*END

*D_NET *63 0.54477
*CONN
*P io_in[5] I
*I *804:io_in[5] I *D picorv32_soc
*CAP
1 io_in[5] 3.21709e-05
2 *804:io_in[5] 0.0137219
3 *63:27 0.0148727
4 *63:17 0.00383232
5 *63:15 0.00268152
6 *63:13 0.0458486
7 *63:11 0.0458486
8 *63:9 0.0106721
9 *63:7 0.0107042
10 *63:9 *99:23 0.00380865
11 *63:9 *138:29 0.0410383
12 *63:9 *139:33 0.0546007
13 *63:13 io_oeb[1] 0
14 *63:13 *90:13 4.47614e-05
15 *63:13 *137:15 0.0665829
16 *63:13 *138:21 0.0165295
17 *63:13 *688:21 0.000466666
18 *63:17 *100:11 0.0027144
19 *63:17 *138:11 0.000157385
20 *63:17 *139:17 0.0151358
21 *63:17 *748:15 0.00788845
22 *63:27 *100:11 4.05869e-05
23 *63:27 *138:5 0
24 *63:27 *139:15 0.00157498
25 *63:27 *750:15 0.000279534
26 *63:27 *751:15 0.000624424
27 *52:19 *63:9 0.00104435
28 *52:21 *63:13 0.183915
29 *61:13 *63:13 0.000109665
*RES
1 io_in[5] *63:7 8.07093 
2 *63:7 *63:9 693.866 
3 *63:9 *63:11 8 
4 *63:11 *63:13 340.088 
5 *63:13 *63:15 8 
6 *63:15 *63:17 192.415 
7 *63:17 *63:27 28.2653 
8 *63:27 *804:io_in[5] 43.6483 
*END

*D_NET *64 0.338514
*CONN
*P io_in[6] I
*I *804:io_in[6] I *D picorv32_soc
*CAP
1 io_in[6] 0.00501992
2 *804:io_in[6] 0.0153841
3 *64:19 0.0153841
4 *64:17 0.0317539
5 *64:15 0.0317539
6 *64:13 0.0809917
7 *64:11 0.0860116
8 *64:11 io_oeb[5] 0.00407677
9 *64:11 io_out[6] 0.00280687
10 *64:13 *140:13 0.0283876
11 *64:13 *646:25 0.014369
12 *64:13 *647:25 8.99145e-06
13 *64:17 *685:14 0.0225652
*RES
1 io_in[6] *64:11 41.3064 
2 *64:11 *64:13 335.279 
3 *64:13 *64:15 8 
4 *64:15 *64:17 141.967 
5 *64:17 *64:19 8 
6 *64:19 *804:io_in[6] 48.6285 
*END

*D_NET *65 0.355152
*CONN
*P io_in[7] I
*I *804:io_in[7] I *D picorv32_soc
*CAP
1 io_in[7] 0.108645
2 *804:io_in[7] 0.00456161
3 *65:9 0.0371558
4 *65:7 0.0325942
5 *65:5 0.108645
6 *65:9 *109:9 0
7 *65:9 *142:9 0.0635515
*RES
1 io_in[7] *65:5 370.113 
2 *65:5 *65:7 8 
3 *65:7 *65:9 159.865 
4 *65:9 *804:io_in[7] 22.1101 
*END

*D_NET *66 0.351984
*CONN
*P io_in[8] I
*I *804:io_in[8] I *D picorv32_soc
*CAP
1 io_in[8] 0.107682
2 *804:io_in[8] 0.00779013
3 *66:9 0.0683106
4 *66:7 0.0605204
5 *66:5 0.107682
6 *66:9 *105:9 0
*RES
1 io_in[8] *66:5 359.981 
2 *66:5 *66:7 8 
3 *66:7 *66:9 202.642 
4 *66:9 *804:io_in[8] 32.2424 
*END

*D_NET *67 0.430703
*CONN
*P io_in[9] I
*I *804:io_in[9] I *D picorv32_soc
*CAP
1 io_in[9] 0.114723
2 *804:io_in[9] 0.000664931
3 *67:9 0.0466257
4 *67:7 0.0459608
5 *67:5 0.114723
6 *67:9 *69:9 0.0987505
7 *67:9 *143:9 0
8 *67:9 *730:14 0.000538308
9 *67:9 *760:21 0.000668827
10 *67:9 *762:13 0.000736363
11 *67:9 *769:15 0.00731197
*RES
1 io_in[9] *67:5 382.822 
2 *67:5 *67:7 8 
3 *67:7 *67:9 245.291 
4 *67:9 *804:io_in[9] 9.40187 
*END

*D_NET *68 0.303938
*CONN
*P io_oeb[0] O
*I *804:io_oeb[0] O *D picorv32_soc
*CAP
1 io_oeb[0] 0.00480193
2 *804:io_oeb[0] 0.00634956
3 *68:13 0.109386
4 *68:11 0.110934
5 io_oeb[0] *106:17 0.0100598
6 *68:11 *728:15 0.000635281
7 *68:11 *729:15 0.000728523
8 *68:11 *730:14 0.00257065
9 *68:11 *735:30 0.0005823
10 *68:11 *736:26 0.000385188
11 *68:11 *760:21 0.000728523
12 *68:11 *762:13 0.000642562
13 *68:11 *769:15 0
14 *68:13 io_out[1] 0
15 *68:13 *713:9 0.056134
16 *68:13 *716:9 0
*RES
1 *804:io_oeb[0] *68:11 38.0584 
2 *68:11 *68:13 382.85 
3 *68:13 io_oeb[0] 40.164 
*END

*D_NET *69 0.534671
*CONN
*P io_oeb[10] O
*I *804:io_oeb[10] O *D picorv32_soc
*CAP
1 io_oeb[10] 0.114622
2 *804:io_oeb[10] 0.00062714
3 *69:11 0.114622
4 *69:9 0.0379592
5 *69:7 0.0385864
6 *69:9 *70:9 0.127345
7 *69:9 *143:9 0
8 *69:9 *730:14 0.00105125
9 *69:9 *760:21 0.000514266
10 *69:9 *762:13 0.000592995
11 *67:9 *69:9 0.0987505
*RES
1 *804:io_oeb[10] *69:7 9.23013 
2 *69:7 *69:9 308.25 
3 *69:9 *69:11 8 
4 *69:11 io_oeb[10] 382.993 
*END

*D_NET *70 0.518749
*CONN
*P io_oeb[11] O
*I *804:io_oeb[11] O *D picorv32_soc
*CAP
1 io_oeb[11] 0.114595
2 *804:io_oeb[11] 0.000553691
3 *70:11 0.114595
4 *70:9 0.0735279
5 *70:7 0.0740816
6 *70:9 *728:15 0.0018554
7 *70:9 *729:15 0.00212773
8 *70:9 *730:14 0.0060377
9 *70:9 *760:21 0.00212773
10 *70:9 *762:13 0.00190301
11 *69:9 *70:9 0.127345
*RES
1 *804:io_oeb[11] *70:7 9.0584 
2 *70:7 *70:9 351.027 
3 *70:9 *70:11 8 
4 *70:11 io_oeb[11] 383.165 
*END

*D_NET *71 0.4601
*CONN
*P io_oeb[12] O
*I *804:io_oeb[12] O *D picorv32_soc
*CAP
1 io_oeb[12] 0.103657
2 *804:io_oeb[12] 0.0119256
3 *71:11 0.103657
4 *71:9 0.114467
5 *71:7 0.126393
6 *71:9 *103:9 0
7 *71:9 *107:9 0
*RES
1 *804:io_oeb[12] *71:7 45.1224 
2 *71:7 *71:9 393.803 
3 *71:9 *71:11 8 
4 *71:11 io_oeb[12] 347.101 
*END

*D_NET *72 0.48398
*CONN
*P io_oeb[13] O
*I *804:io_oeb[13] O *D picorv32_soc
*CAP
1 io_oeb[13] 0.111474
2 *804:io_oeb[13] 0.00389861
3 *72:11 0.111474
4 *72:9 0.126617
5 *72:7 0.130516
*RES
1 *804:io_oeb[13] *72:7 19.3624 
2 *72:7 *72:9 436.453 
3 *72:9 *72:11 8 
4 *72:11 io_oeb[13] 372.861 
*END

*D_NET *73 0.509189
*CONN
*P io_oeb[14] O
*I *804:io_oeb[14] O *D picorv32_soc
*CAP
1 io_oeb[14] 0.113597
2 *804:io_oeb[14] 0.0016017
3 *73:11 0.113597
4 *73:9 0.138816
5 *73:7 0.140417
6 *73:9 *143:9 0
7 *73:9 *740:10 0
8 *73:9 *768:15 0.000406399
9 *73:9 *786:18 0.000434376
10 *73:9 *801:18 0.000320549
11 *34:9 *73:9 0
*RES
1 *804:io_oeb[14] *73:7 11.6344 
2 *73:7 *73:9 479.229 
3 *73:9 *73:11 8 
4 *73:11 io_oeb[14] 380.589 
*END

*D_NET *74 0.480086
*CONN
*P io_oeb[15] O
*I *804:io_oeb[15] O *D picorv32_soc
*CAP
1 io_oeb[15] 0.000287987
2 *804:io_oeb[15] 0.0210147
3 *74:13 0.0940947
4 *74:11 0.0938067
5 *74:9 0.124933
6 *74:7 0.124933
7 *74:5 0.0210147
8 *74:9 *75:9 0
9 *42:9 *74:9 0
*RES
1 *804:io_oeb[15] *74:5 484.621 
2 *74:5 *74:7 8 
3 *74:7 *74:9 416.423 
4 *74:9 *74:11 8 
5 *74:11 *74:13 2169.59 
6 *74:13 io_oeb[15] 6.78393 
*END

*D_NET *75 0.447947
*CONN
*P io_oeb[16] O
*I *804:io_oeb[16] O *D picorv32_soc
*CAP
1 io_oeb[16] 0.0937696
2 *804:io_oeb[16] 0.0219014
3 *75:11 0.0937696
4 *75:9 0.108303
5 *75:7 0.108303
6 *75:5 0.0219014
7 *74:9 *75:9 0
*RES
1 *804:io_oeb[16] *75:5 491.664 
2 *75:5 *75:7 8 
3 *75:7 *75:9 359.065 
4 *75:9 *75:11 8 
5 *75:11 io_oeb[16] 2168.57 
*END

*D_NET *76 0.41314
*CONN
*P io_oeb[17] O
*I *804:io_oeb[17] O *D picorv32_soc
*CAP
1 io_oeb[17] 0.00031239
2 *804:io_oeb[17] 0.0222332
3 *76:13 0.0934713
4 *76:11 0.0931589
5 *76:9 0.0908656
6 *76:7 0.0908656
7 *76:5 0.0222332
8 *76:9 *78:9 0
*RES
1 *804:io_oeb[17] *76:5 499.411 
2 *76:5 *76:7 8 
3 *76:7 *76:9 301.534 
4 *76:9 *76:11 8 
5 *76:11 *76:13 2154.8 
6 *76:13 io_oeb[17] 6.78393 
*END

*D_NET *77 0.377806
*CONN
*P io_oeb[18] O
*I *804:io_oeb[18] O *D picorv32_soc
*CAP
1 io_oeb[18] 0.0928393
2 *804:io_oeb[18] 0.0222552
3 *77:11 0.0928393
4 *77:9 0.0738085
5 *77:7 0.0738085
6 *77:5 0.0222552
7 *77:9 *78:9 0
*RES
1 *804:io_oeb[18] *77:5 513.497 
2 *77:5 *77:7 8 
3 *77:7 *77:9 244.089 
4 *77:9 *77:11 8 
5 *77:11 io_oeb[18] 2146.74 
*END

*D_NET *78 0.343535
*CONN
*P io_oeb[19] O
*I *804:io_oeb[19] O *D picorv32_soc
*CAP
1 io_oeb[19] 0.0931722
2 *804:io_oeb[19] 0.021924
3 *78:11 0.0931722
4 *78:9 0.0566714
5 *78:7 0.0566714
6 *78:5 0.021924
7 *76:9 *78:9 0
8 *77:9 *78:9 0
*RES
1 *804:io_oeb[19] *78:5 506.454 
2 *78:5 *78:7 8 
3 *78:7 *78:9 186.644 
4 *78:9 *78:11 8 
5 *78:11 io_oeb[19] 2153.78 
*END

*D_NET *79 0.35353
*CONN
*P io_oeb[1] O
*I *804:io_oeb[1] O *D picorv32_soc
*CAP
1 io_oeb[1] 0.0355637
2 *804:io_oeb[1] 0.00520386
3 *79:32 0.0369235
4 *79:18 0.0168324
5 *79:16 0.0156412
6 *79:10 0.0348814
7 *79:8 0.0399166
8 io_oeb[1] *137:15 0
9 io_oeb[1] *138:21 0.00651742
10 *79:8 *731:23 0.00132834
11 *79:8 *732:13 0.0015233
12 *79:8 *737:28 0.00132834
13 *79:8 *739:15 0.00114121
14 *79:8 *763:25 0.0015233
15 *79:8 *764:13 0
16 *79:10 *139:21 0.0841313
17 *79:10 *139:29 0.00207498
18 *79:10 *540:44 0.0543646
19 *79:10 *651:16 0.00159973
20 *79:10 *653:9 0.00145999
21 *79:10 *654:9 0.00018129
22 *79:10 *731:27 2.79949e-05
23 *79:10 *763:21 7.20213e-06
24 *79:10 *794:17 0.000296448
25 *79:18 *139:29 0
26 *79:18 *646:17 0
27 *79:18 *647:17 0
28 *79:18 *648:17 0
29 *79:18 *649:17 0
30 *79:18 *652:9 0.010931
31 *79:32 *802:Di0[2] 0
32 *79:32 *651:18 0
33 *79:32 *652:9 5.31583e-05
34 *79:32 *654:9 4.51815e-05
35 *79:32 *662:15 2.11157e-05
36 *79:32 *695:5 1.09886e-05
37 *61:13 *79:10 0
38 *63:13 io_oeb[1] 0
*RES
1 *804:io_oeb[1] *79:8 32.9381 
2 *79:8 *79:10 209.699 
3 *79:10 *79:16 26.1382 
4 *79:16 *79:18 322.211 
5 *79:18 *79:32 42.5224 
6 *79:32 io_oeb[1] 116.978 
*END

*D_NET *80 0.323125
*CONN
*P io_oeb[20] O
*I *804:io_oeb[20] O *D picorv32_soc
*CAP
1 io_oeb[20] 0.114012
2 *804:io_oeb[20] 0.00104774
3 *80:19 0.114012
4 *80:17 0.015843
5 *80:15 0.0159444
6 *80:9 0.0150789
7 *80:7 0.0160253
8 *80:9 *778:9 0.0126623
9 *80:9 *780:9 0.00107764
10 *80:9 *781:9 0.000328389
11 *80:9 *783:9 0.000404652
12 *80:9 *790:9 0.00539904
13 *80:9 *800:9 0
14 *80:17 *790:9 0.0112904
*RES
1 *804:io_oeb[20] *80:7 29.9054 
2 *80:7 *80:9 65.4005 
3 *80:9 *80:15 25.0818 
4 *80:15 *80:17 354.131 
5 *80:17 *80:19 15 
6 *80:19 io_oeb[20] 2636.39 
*END

*D_NET *81 0.317806
*CONN
*P io_oeb[21] O
*I *804:io_oeb[21] O *D picorv32_soc
*CAP
1 io_oeb[21] 0.000251053
2 *804:io_oeb[21] 0.114535
3 *81:9 0.00864107
4 *81:7 0.00839001
5 *81:5 0.114535
6 *81:9 io_oeb[22] 0
7 *81:9 *112:14 0.0033717
8 *81:9 *113:9 0.0298499
9 *81:9 *119:9 0.0382325
10 *81:9 *120:11 0
*RES
1 *804:io_oeb[21] *81:5 2655.93 
2 *81:5 *81:7 8 
3 *81:7 *81:9 71.6688 
4 *81:9 io_oeb[21] 12.2982 
*END

*D_NET *82 0.23809
*CONN
*P io_oeb[22] O
*I *804:io_oeb[22] O *D picorv32_soc
*CAP
1 io_oeb[22] 0.00355211
2 *804:io_oeb[22] 0.114689
3 *82:5 0.118241
4 io_oeb[22] *115:9 0.00019458
5 io_oeb[22] *116:9 0.000630933
6 io_oeb[22] *118:9 0.000494598
7 io_oeb[22] *119:9 0.000287323
8 *81:9 io_oeb[22] 0
*RES
1 *804:io_oeb[22] *82:5 2660.16 
2 *82:5 io_oeb[22] 32.7762 
*END

*D_NET *83 0.268138
*CONN
*P io_oeb[23] O
*I *804:io_oeb[23] O *D picorv32_soc
*CAP
1 io_oeb[23] 0.114982
2 *804:io_oeb[23] 0
3 *83:8 0.114982
4 *83:6 0.0122212
5 *83:4 0.0122212
6 io_oeb[23] *93:9 0.0048082
7 *83:6 *129:19 0
8 *83:6 *726:25 0.00175644
9 *83:6 *727:16 0.000137161
10 *83:6 *791:9 9.11923e-06
11 *83:6 *798:19 3.66451e-05
12 *804:io_in[23] *83:6 0.00698319
*RES
1 *804:io_oeb[23] *83:4 8 
2 *83:4 *83:6 43.3328 
3 *83:6 *83:8 8 
4 *83:8 io_oeb[23] 2661.57 
*END

*D_NET *84 0.287647
*CONN
*P io_oeb[24] O
*I *804:io_oeb[24] O *D picorv32_soc
*CAP
1 io_oeb[24] 0.0122272
2 *804:io_oeb[24] 0.0028213
3 *84:9 0.141002
4 *84:7 0.131596
*RES
1 *804:io_oeb[24] *84:7 16.2712 
2 *84:7 *84:9 446.1 
3 *84:9 io_oeb[24] 48.6355 
*END

*D_NET *85 0.265175
*CONN
*P io_oeb[25] O
*I *804:io_oeb[25] O *D picorv32_soc
*CAP
1 io_oeb[25] 0.0096677
2 *804:io_oeb[25] 0.00562044
3 *85:9 0.126967
4 *85:7 0.12292
5 *85:9 *125:9 0
6 *49:15 *85:9 0
*RES
1 *804:io_oeb[25] *85:7 25.2013 
2 *85:7 *85:9 405.1 
3 *85:9 io_oeb[25] 39.7053 
*END

*D_NET *86 0.241153
*CONN
*P io_oeb[26] O
*I *804:io_oeb[26] O *D picorv32_soc
*CAP
1 io_oeb[26] 0.00770828
2 *804:io_oeb[26] 0.00761144
3 *86:9 0.112965
4 *86:7 0.112868
5 *53:15 *86:9 0
*RES
1 *804:io_oeb[26] *86:7 31.7272 
2 *86:7 *86:9 363.974 
3 *86:9 io_oeb[26] 33.1795 
*END

*D_NET *87 0.217758
*CONN
*P io_oeb[27] O
*I *804:io_oeb[27] O *D picorv32_soc
*CAP
1 io_oeb[27] 0.0113733
2 *804:io_oeb[27] 0.00398741
3 *87:9 0.104892
4 *87:7 0.0975058
5 *87:9 *94:9 0
*RES
1 *804:io_oeb[27] *87:7 20.0493 
2 *87:7 *87:9 322.974 
3 *87:9 io_oeb[27] 44.8573 
*END

*D_NET *88 0.193983
*CONN
*P io_oeb[28] O
*I *804:io_oeb[28] O *D picorv32_soc
*CAP
1 io_oeb[28] 0.000461165
2 *804:io_oeb[28] 0.00480397
3 *88:15 0.0109886
4 *88:9 0.0917263
5 *88:7 0.0860029
6 *88:9 *92:9 0
7 *88:9 *125:9 0
8 *88:15 *126:23 0
*RES
1 *804:io_oeb[28] *88:7 22.6253 
2 *88:7 *88:9 280.198 
3 *88:9 *88:15 49.8875 
4 *88:15 io_oeb[28] 9.73413 
*END

*D_NET *89 0.170116
*CONN
*P io_oeb[29] O
*I *804:io_oeb[29] O *D picorv32_soc
*CAP
1 io_oeb[29] 0.0138606
2 *804:io_oeb[29] 0.00152608
3 *89:11 0.0138606
4 *89:9 0.0696713
5 *89:7 0.0711974
*RES
1 *804:io_oeb[29] *89:7 12.3213 
2 *89:7 *89:9 240.722 
3 *89:9 *89:11 8 
4 *89:11 io_oeb[29] 44.3464 
*END

*D_NET *90 0.508805
*CONN
*P io_oeb[2] O
*I *804:io_oeb[2] O *D picorv32_soc
*CAP
1 io_oeb[2] 0.000275628
2 *804:io_oeb[2] 0.0142857
3 *90:21 0.00624091
4 *90:13 0.0358726
5 *90:11 0.0347629
6 *90:5 0.0191412
7 *90:11 *803:cpu_mem_wdata[21] 0.000275412
8 *90:11 *100:11 0.000806782
9 *90:11 *138:11 0
10 *90:11 *681:13 0.000225746
11 *90:13 *128:21 0.181263
12 *90:13 *651:16 0.0044457
13 *90:21 io_out[2] 0.00697758
14 *90:21 *99:23 0.0107689
15 *52:19 *90:21 0.000980106
16 *52:21 *90:13 0.18374
17 *52:27 *90:11 0.00742865
18 *61:13 *90:13 0.00126971
19 *63:13 *90:13 4.47614e-05
*RES
1 *804:io_oeb[2] *90:5 44.8504 
2 *90:5 *90:11 38.6501 
3 *90:11 *90:13 338.886 
4 *90:13 *90:21 46.9275 
5 *90:21 io_oeb[2] 8.71493 
*END

*D_NET *91 0.148107
*CONN
*P io_oeb[30] O
*I *804:io_oeb[30] O *D picorv32_soc
*CAP
1 io_oeb[30] 0.0092383
2 *804:io_oeb[30] 0.00611144
3 *91:9 0.0634902
4 *91:7 0.0603633
5 *91:9 *122:9 0
6 *91:9 *766:27 0.0089036
7 *49:15 *91:9 0
8 *56:15 *91:9 0
*RES
1 *804:io_oeb[30] *91:7 27.7773 
2 *91:7 *91:9 199.849 
3 *91:9 io_oeb[30] 37.1293 
*END

*D_NET *92 0.152488
*CONN
*P io_oeb[31] O
*I *804:io_oeb[31] O *D picorv32_soc
*CAP
1 io_oeb[31] 0.0104854
2 *804:io_oeb[31] 0.0050096
3 *92:9 0.0446705
4 *92:7 0.0391947
5 *92:9 *125:9 0.0531276
6 *88:9 *92:9 0
*RES
1 *804:io_oeb[31] *92:7 23.8275 
2 *92:7 *92:9 158.723 
3 *92:9 io_oeb[31] 41.0792 
*END

*D_NET *93 0.10324
*CONN
*P io_oeb[32] O
*I *804:io_oeb[32] O *D picorv32_soc
*CAP
1 io_oeb[32] 0.00238092
2 *804:io_oeb[32] 0.012496
3 *93:9 0.0365568
4 *93:7 0.0466719
5 io_oeb[32] *129:27 0.000325813
6 io_oeb[23] *93:9 0.0048082
*RES
1 *804:io_oeb[32] *93:7 49.7592 
2 *93:7 *93:9 117.215 
3 *93:9 io_oeb[32] 15.2893 
*END

*D_NET *94 0.0763074
*CONN
*P io_oeb[33] O
*I *804:io_oeb[33] O *D picorv32_soc
*CAP
1 io_oeb[33] 0.000414544
2 *804:io_oeb[33] 0.00349532
3 *94:13 0.0123135
4 *94:9 0.0339405
5 *94:7 0.0255369
6 io_oeb[33] *129:25 7.5177e-05
7 io_oeb[33] *132:9 0.000531444
8 *94:13 *129:19 0
9 *87:9 *94:9 0
*RES
1 *804:io_oeb[33] *94:7 18.8472 
2 *94:7 *94:9 74.8197 
3 *94:9 *94:13 45.6656 
4 *94:13 io_oeb[33] 17.8611 
*END

*D_NET *95 0.0506368
*CONN
*P io_oeb[34] O
*I *804:io_oeb[34] O *D picorv32_soc
*CAP
1 io_oeb[34] 0.00347071
2 *804:io_oeb[34] 0.0115018
3 *95:11 0.0138166
4 *95:7 0.0218477
*RES
1 *804:io_oeb[34] *95:7 45.8093 
2 *95:7 *95:11 43.7243 
3 *95:11 io_oeb[34] 10.8584 
*END

*D_NET *96 0.032655
*CONN
*P io_oeb[35] O
*I *804:io_oeb[35] O *D picorv32_soc
*CAP
1 io_oeb[35] 0.00157884
2 *804:io_oeb[35] 0.0147486
3 *96:5 0.0163275
*RES
1 *804:io_oeb[35] *96:5 48.4568 
2 *96:5 io_oeb[35] 21.5421 
*END

*D_NET *97 0.0534371
*CONN
*P io_oeb[36] O
*I *804:io_oeb[36] O *D picorv32_soc
*CAP
1 io_oeb[36] 0.00663868
2 *804:io_oeb[36] 0.00228541
3 *97:10 0.0202168
4 *97:8 0.0158635
5 *97:8 *727:18 0.00505106
6 *97:8 *756:18 0.000783775
7 *97:8 *788:25 0.00259794
*RES
1 *804:io_oeb[36] *97:8 31.7957 
2 *97:8 *97:10 45.5653 
3 *97:10 io_oeb[36] 37.9725 
*END

*D_NET *98 0.0754632
*CONN
*P io_oeb[37] O
*I *804:io_oeb[37] O *D picorv32_soc
*CAP
1 io_oeb[37] 7.11757e-05
2 *804:io_oeb[37] 0.0149568
3 *98:9 0.0119736
4 *98:7 0.0119025
5 *98:5 0.0149568
6 *98:9 *136:9 0.0216023
*RES
1 *804:io_oeb[37] *98:5 48.6285 
2 *98:5 *98:7 8 
3 *98:7 *98:9 63.0149 
4 *98:9 io_oeb[37] 8.28187 
*END

*D_NET *99 0.502698
*CONN
*P io_oeb[3] O
*I *804:io_oeb[3] O *D picorv32_soc
*CAP
1 io_oeb[3] 0.00014983
2 *804:io_oeb[3] 0.0110537
3 *99:23 0.0155729
4 *99:21 0.0160092
5 *99:15 0.0705515
6 *99:11 0.0810191
7 *99:15 *100:17 0.132826
8 *99:15 *100:21 0.000211173
9 *99:21 *100:21 0.000160572
10 *99:23 *138:29 0.00838647
11 *52:19 *99:23 0.00192975
12 *62:13 *99:23 0.0029642
13 *62:25 *99:21 0.000155442
14 *62:29 *99:15 0.14713
15 *63:9 *99:23 0.00380865
16 *90:21 *99:23 0.0107689
*RES
1 *804:io_oeb[3] *99:11 44.4267 
2 *99:11 *99:15 45.3492 
3 *99:15 *99:21 17.9451 
4 *99:21 *99:23 70.504 
5 *99:23 io_oeb[3] 8.37147 
*END

*D_NET *100 0.464396
*CONN
*P io_oeb[4] O
*I *804:io_oeb[4] O *D picorv32_soc
*CAP
1 io_oeb[4] 0.000198453
2 *804:io_oeb[4] 0.0139808
3 *100:23 0.0165281
4 *100:21 0.0183502
5 *100:17 0.0966213
6 *100:11 0.101254
7 *100:5 0.0206336
8 *100:5 *139:15 0
9 *100:11 *138:11 0.00673749
10 *100:11 *139:15 0.000291694
11 *100:11 *139:17 0.00273753
12 *100:11 *682:10 0.0024852
13 *100:23 *139:33 0.0472755
14 *52:19 *100:23 0.000542918
15 *62:25 *100:21 0
16 *63:17 *100:11 0.0027144
17 *63:27 *100:11 4.05869e-05
18 *90:11 *100:11 0.000806782
19 *99:15 *100:17 0.132826
20 *99:15 *100:21 0.000211173
21 *99:21 *100:21 0.000160572
*RES
1 *804:io_oeb[4] *100:5 44.1635 
2 *100:5 *100:11 40.5534 
3 *100:11 *100:17 48.944 
4 *100:17 *100:21 14.3672 
5 *100:21 *100:23 600.196 
6 *100:23 io_oeb[4] 8.7392 
*END

*D_NET *101 0.395271
*CONN
*P io_oeb[5] O
*I *804:io_oeb[5] O *D picorv32_soc
*CAP
1 io_oeb[5] 0.00754182
2 *804:io_oeb[5] 0.0135416
3 *101:15 0.117691
4 *101:9 0.157579
5 *101:7 0.0474297
6 *101:5 0.0135416
7 *101:9 *102:9 0
8 *101:9 *111:9 0
9 *101:9 *682:10 0.00692383
10 *101:9 *748:15 0.00429714
11 *101:9 *749:15 0.00457321
12 *101:9 *750:15 0.00549676
13 *101:9 *751:15 0.0125789
14 *64:11 io_oeb[5] 0.00407677
*RES
1 *804:io_oeb[5] *101:5 43.6483 
2 *101:5 *101:7 8 
3 *101:7 *101:9 136.763 
4 *101:9 *101:15 42.5555 
5 *101:15 io_oeb[5] 38.4733 
*END

*D_NET *102 0.393548
*CONN
*P io_oeb[6] O
*I *804:io_oeb[6] O *D picorv32_soc
*CAP
1 io_oeb[6] 0.00047416
2 *804:io_oeb[6] 0.0142772
3 *102:29 0.0382162
4 *102:27 0.0379448
5 *102:21 0.0286639
6 *102:19 0.0324193
7 *102:9 0.0375515
8 *102:7 0.0335933
9 *102:5 0.0142772
10 io_oeb[6] *140:13 2.195e-05
11 *102:9 *803:cpu_mem_wdata[21] 0.00582858
12 *102:9 *111:9 0.0198089
13 *102:9 *681:13 0.0131268
14 *102:9 *683:15 0.00700951
15 *102:19 *140:13 0.00109851
16 *102:19 *656:8 0.00059522
17 *102:19 *667:8 0.000204288
18 *102:19 *682:8 0.000195374
19 *102:19 *685:10 0.000168186
20 *102:19 *686:16 0.0071705
21 *102:19 *687:12 0.00345237
22 *102:19 *687:16 0.000758215
23 *102:21 *657:8 0.00167032
24 *102:21 *657:10 0
25 *102:21 *660:11 0.0442005
26 *102:21 *664:6 0.00345011
27 *102:21 *674:6 0.00060444
28 *102:21 *675:6 0.000844116
29 *102:21 *676:9 0.001139
30 *102:21 *683:13 0.00490114
31 *102:21 *684:8 0.000663216
32 *102:21 *685:10 0.00038105
33 *102:21 *686:12 0.000359666
34 *102:21 *687:12 0
35 *102:29 *802:A0[7] 0.00045828
36 *102:29 *649:25 0.0013693
37 *102:29 *657:10 0.00478863
38 *102:29 *657:24 0.000445912
39 *102:29 *664:6 0.000724642
40 *102:29 *664:14 0.00219264
41 *102:29 *674:14 9.29049e-05
42 *102:29 *675:14 0.00777249
43 *102:29 *676:17 0.00477867
44 *102:29 *679:11 0.00864114
45 *102:29 *679:15 0.00470146
46 *102:29 *679:19 0.00251275
47 *101:9 *102:9 0
*RES
1 *804:io_oeb[6] *102:5 45.1939 
2 *102:5 *102:7 8 
3 *102:7 *102:9 138.54 
4 *102:9 *102:19 46.0789 
5 *102:19 *102:21 136.713 
6 *102:21 *102:27 26.4904 
7 *102:27 *102:29 1005.41 
8 *102:29 io_oeb[6] 32.0152 
*END

*D_NET *103 0.356171
*CONN
*P io_oeb[7] O
*I *804:io_oeb[7] O *D picorv32_soc
*CAP
1 io_oeb[7] 0.103372
2 *804:io_oeb[7] 0.0120313
3 *103:11 0.103372
4 *103:9 0.0488466
5 *103:7 0.0608779
6 *103:9 *803:cpu_mem_wdata[20] 0.00448474
7 *103:9 *787:18 0.00906445
8 *103:9 *789:13 0.0102693
9 *103:9 *790:13 0.00385294
10 *32:9 *103:9 0
11 *71:9 *103:9 0
*RES
1 *804:io_oeb[7] *103:7 46.4963 
2 *103:7 *103:9 180.047 
3 *103:9 *103:11 8 
4 *103:11 io_oeb[7] 345.727 
*END

*D_NET *104 0.363759
*CONN
*P io_oeb[8] O
*I *804:io_oeb[8] O *D picorv32_soc
*CAP
1 io_oeb[8] 0.102986
2 *804:io_oeb[8] 0.0102105
3 *104:11 0.102986
4 *104:9 0.0649506
5 *104:7 0.0751611
6 *104:9 *803:cpu_mem_wdata[19] 0.00746388
*RES
1 *804:io_oeb[8] *104:7 39.9704 
2 *104:7 *104:9 222.824 
3 *104:9 *104:11 8 
4 *104:11 io_oeb[8] 352.253 
*END

*D_NET *105 0.393155
*CONN
*P io_oeb[9] O
*I *804:io_oeb[9] O *D picorv32_soc
*CAP
1 io_oeb[9] 0.107251
2 *804:io_oeb[9] 0.00819645
3 *105:11 0.107251
4 *105:9 0.0773834
5 *105:7 0.0855799
6 *105:9 *803:cpu_mem_wdata[18] 0.0074937
7 *66:9 *105:9 0
*RES
1 *804:io_oeb[9] *105:7 33.6163 
2 *105:7 *105:9 265.601 
3 *105:9 *105:11 8 
4 *105:11 io_oeb[9] 358.607 
*END

*D_NET *106 0.317311
*CONN
*P io_out[0] O
*I *804:io_out[0] O *D picorv32_soc
*CAP
1 io_out[0] 9.43086e-05
2 *804:io_out[0] 0.0073441
3 *106:17 0.00594558
4 *106:13 0.105384
5 *106:11 0.106877
6 *106:13 *530:14 0
7 *106:13 *699:9 0.0677313
8 io_oeb[0] *106:17 0.0100598
9 *804:io_in[4] *106:11 0.000123198
10 *30:13 *106:17 0.0137521
*RES
1 *804:io_out[0] *106:11 39.9773 
2 *106:11 *106:13 376.152 
3 *106:13 *106:17 46.8976 
4 *106:17 io_out[0] 8.19973 
*END

*D_NET *107 0.403457
*CONN
*P io_out[10] O
*I *804:io_out[10] O *D picorv32_soc
*CAP
1 io_out[10] 0.1018
2 *804:io_out[10] 0.0115971
3 *107:11 0.1018
4 *107:9 0.0867477
5 *107:7 0.0983448
6 *107:9 *785:18 0.00316695
7 *71:9 *107:9 0
*RES
1 *804:io_out[10] *107:7 43.9203 
2 *107:7 *107:9 298.222 
3 *107:9 *107:11 8 
4 *107:11 io_out[10] 348.303 
*END

*D_NET *108 0.432047
*CONN
*P io_out[11] O
*I *804:io_out[11] O *D picorv32_soc
*CAP
1 io_out[11] 0.108389
2 *804:io_out[11] 0.00710167
3 *108:11 0.108389
4 *108:9 0.0990552
5 *108:7 0.106157
6 *108:9 *743:5 0.00295507
*RES
1 *804:io_out[11] *108:7 29.6664 
2 *108:7 *108:9 340.872 
3 *108:9 *108:11 8 
4 *108:11 io_out[11] 362.557 
*END

*D_NET *109 0.455745
*CONN
*P io_out[12] O
*I *804:io_out[12] O *D picorv32_soc
*CAP
1 io_out[12] 0.110372
2 *804:io_out[12] 0.00512392
3 *109:11 0.110372
4 *109:9 0.111241
5 *109:7 0.116365
6 *109:9 *142:9 0
7 *109:9 *742:5 0.00227135
8 *65:9 *109:9 0
*RES
1 *804:io_out[12] *109:7 23.3123 
2 *109:7 *109:9 383.649 
3 *109:9 *109:11 8 
4 *109:11 io_out[12] 368.911 
*END

*D_NET *110 0.473563
*CONN
*P io_out[13] O
*I *804:io_out[13] O *D picorv32_soc
*CAP
1 io_out[13] 0.107088
2 *804:io_out[13] 0.00595922
3 *110:11 0.107088
4 *110:9 0.123735
5 *110:7 0.129694
*RES
1 *804:io_out[13] *110:7 25.8883 
2 *110:7 *110:9 426.425 
3 *110:9 *110:11 8 
4 *110:11 io_out[13] 366.335 
*END

*D_NET *111 0.511493
*CONN
*P io_out[14] O
*I *804:io_out[14] O *D picorv32_soc
*CAP
1 io_out[14] 0.101425
2 *804:io_out[14] 0.0149592
3 *111:11 0.101425
4 *111:9 0.129457
5 *111:7 0.129457
6 *111:5 0.0149592
7 *101:9 *111:9 0
8 *102:9 *111:9 0.0198089
*RES
1 *804:io_out[14] *111:5 44.8504 
2 *111:5 *111:7 8 
3 *111:7 *111:9 469.075 
4 *111:9 *111:11 8 
5 *111:11 io_out[14] 339.373 
*END

*D_NET *112 0.82321
*CONN
*P io_out[15] O
*I *804:io_out[15] O *D picorv32_soc
*CAP
1 io_out[15] 0.000385655
2 *804:io_out[15] 2.44249e-05
3 *112:14 0.175749
4 *112:12 0.175363
5 *112:10 0.161579
6 *112:8 0.161603
7 *112:8 *759:17 0
8 *112:8 *799:19 4.93791e-05
9 *112:14 *113:9 0.041386
10 *112:14 *114:9 0.0375068
11 *112:14 *115:9 0.0301426
12 *112:14 *116:9 0.0192247
13 *112:14 *118:9 0.0111626
14 *112:14 *119:9 0.00505984
15 *112:14 *120:11 0.000603323
16 *36:21 *112:10 0
17 *81:9 *112:14 0.0033717
*RES
1 *804:io_out[15] *112:8 16.0989 
2 *112:8 *112:10 479.61 
3 *112:10 *112:12 0.891 
4 *112:12 *112:14 51.5601 
5 *112:14 io_out[15] 19.3409 
*END

*D_NET *113 0.519589
*CONN
*P io_out[16] O
*I *804:io_out[16] O *D picorv32_soc
*CAP
1 io_out[16] 0.000219962
2 *804:io_out[16] 0.114624
3 *113:9 0.0935881
4 *113:7 0.0933681
5 *113:5 0.114624
6 *113:9 *114:9 0
7 *113:9 *115:9 0.00594129
8 *113:9 *116:9 0.0090458
9 *113:9 *118:9 0.0117617
10 *113:9 *119:9 0.00444193
11 *113:9 *120:11 0
12 *39:11 *113:9 0.000737324
13 *81:9 *113:9 0.0298499
14 *112:14 *113:9 0.041386
*RES
1 *804:io_out[16] *113:5 2655.23 
2 *113:5 *113:7 8 
3 *113:7 *113:9 373.147 
4 *113:9 io_out[16] 13.0025 
*END

*D_NET *114 0.541327
*CONN
*P io_out[17] O
*I *804:io_out[17] O *D picorv32_soc
*CAP
1 io_out[17] 8.02259e-05
2 *804:io_out[17] 0.114842
3 *114:9 0.0679842
4 *114:7 0.0679039
5 *114:5 0.114842
6 *114:9 *115:9 0.138168
7 *112:14 *114:9 0.0375068
8 *113:9 *114:9 0
*RES
1 *804:io_out[17] *114:5 2659.46 
2 *114:5 *114:7 8 
3 *114:7 *114:9 315.53 
4 *114:9 io_out[17] 9.87464 
*END

*D_NET *115 0.565995
*CONN
*P io_out[18] O
*I *804:io_out[18] O *D picorv32_soc
*CAP
1 io_out[18] 8.32267e-05
2 *804:io_out[18] 0.114777
3 *115:9 0.0274918
4 *115:7 0.0274085
5 *115:5 0.114777
6 *115:9 *116:9 0.107011
7 io_oeb[22] *115:9 0.00019458
8 *112:14 *115:9 0.0301426
9 *113:9 *115:9 0.00594129
10 *114:9 *115:9 0.138168
*RES
1 *804:io_out[18] *115:5 2658.75 
2 *115:5 *115:7 8 
3 *115:7 *115:9 258.257 
4 *115:9 io_out[18] 9.48107 
*END

*D_NET *116 0.483254
*CONN
*P io_out[19] O
*I *804:io_out[19] O *D picorv32_soc
*CAP
1 io_out[19] 0.000124422
2 *804:io_out[19] 0.114712
3 *116:9 0.0209857
4 *116:7 0.0208613
5 *116:5 0.114712
6 *116:9 *118:9 0.0759467
7 io_oeb[22] *116:9 0.000630933
8 *112:14 *116:9 0.0192247
9 *113:9 *116:9 0.0090458
10 *115:9 *116:9 0.107011
*RES
1 *804:io_out[19] *116:5 2658.05 
2 *116:5 *116:7 8 
3 *116:7 *116:9 200.726 
4 *116:9 io_out[19] 10.1854 
*END

*D_NET *117 0.253167
*CONN
*P io_out[1] O
*I *804:io_out[1] O *D picorv32_soc
*CAP
1 io_out[1] 0.0995636
2 *804:io_out[1] 0.0122808
3 *117:11 0.106256
4 *117:7 0.0189729
5 io_out[1] *713:9 0
6 io_out[1] *718:9 0.0149356
7 *117:11 *787:18 0.00115823
8 *68:13 io_out[1] 0
*RES
1 *804:io_out[1] *117:7 47.6984 
2 *117:7 *117:11 32.5541 
3 *117:11 io_out[1] 344.525 
*END

*D_NET *118 0.403672
*CONN
*P io_out[20] O
*I *804:io_out[20] O *D picorv32_soc
*CAP
1 io_out[20] 0.000166632
2 *804:io_out[20] 0.114645
3 *118:9 0.0150907
4 *118:7 0.014924
5 *118:5 0.114645
6 *118:9 *119:9 0.0448343
7 io_oeb[22] *118:9 0.000494598
8 *112:14 *118:9 0.0111626
9 *113:9 *118:9 0.0117617
10 *116:9 *118:9 0.0759467
*RES
1 *804:io_out[20] *118:5 2657.34 
2 *118:5 *118:7 8 
3 *118:7 *118:9 143.282 
4 *118:9 io_out[20] 10.8896 
*END

*D_NET *119 0.338958
*CONN
*P io_out[21] O
*I *804:io_out[21] O *D picorv32_soc
*CAP
1 io_out[21] 0.000208843
2 *804:io_out[21] 0.114577
3 *119:9 0.00847389
4 *119:7 0.00826505
5 *119:5 0.114577
6 io_oeb[22] *119:9 0.000287323
7 *81:9 *119:9 0.0382325
8 *112:14 *119:9 0.00505984
9 *113:9 *119:9 0.00444193
10 *118:9 *119:9 0.0448343
*RES
1 *804:io_out[21] *119:5 2656.64 
2 *119:5 *119:7 8 
3 *119:7 *119:9 85.8368 
4 *119:9 io_out[21] 11.5939 
*END

*D_NET *120 0.247483
*CONN
*P io_out[22] O
*I *804:io_out[22] O *D picorv32_soc
*CAP
1 io_out[22] 0.000523465
2 *804:io_out[22] 0.114257
3 *120:11 0.00918278
4 *120:5 0.122916
5 *81:9 *120:11 0
6 *112:14 *120:11 0.000603323
7 *113:9 *120:11 0
*RES
1 *804:io_out[22] *120:5 2650.3 
2 *120:5 *120:11 44.3061 
3 *120:11 io_out[22] 9.9325 
*END

*D_NET *121 0.247409
*CONN
*P io_out[23] O
*I *804:io_out[23] O *D picorv32_soc
*CAP
1 io_out[23] 0.00847283
2 *804:io_out[23] 0.000252223
3 *121:14 0.123012
4 *121:12 0.114792
5 *121:12 *725:19 0.000439952
6 *121:12 *726:25 0.000439952
*RES
1 *804:io_out[23] *121:12 20.2674 
2 *121:12 *121:14 2657.56 
3 *121:14 io_out[23] 46.9442 
*END

*D_NET *122 0.300971
*CONN
*P io_out[24] O
*I *804:io_out[24] O *D picorv32_soc
*CAP
1 io_out[24] 0.00852956
2 *804:io_out[24] 0.00675591
3 *122:9 0.137431
4 *122:7 0.135658
5 *56:15 *122:9 0.0125966
6 *91:9 *122:9 0
*RES
1 *804:io_out[24] *122:7 29.1512 
2 *122:7 *122:9 455.747 
3 *122:9 io_out[24] 35.7555 
*END

*D_NET *123 0.290468
*CONN
*P io_out[25] O
*I *804:io_out[25] O *D picorv32_soc
*CAP
1 io_out[25] 0.00530436
2 *804:io_out[25] 0.0101337
3 *123:9 0.116851
4 *123:7 0.121681
5 *55:15 *123:9 0.0364978
*RES
1 *804:io_out[25] *123:7 39.4552 
2 *123:7 *123:9 414.747 
3 *123:9 io_out[25] 25.4515 
*END

*D_NET *124 0.280002
*CONN
*P io_out[26] O
*I *804:io_out[26] O *D picorv32_soc
*CAP
1 io_out[26] 0.00422947
2 *804:io_out[26] 0.0112635
3 *124:9 0.0986285
4 *124:7 0.105663
5 *50:11 *124:9 0
6 *54:11 *124:9 0.0602178
*RES
1 *804:io_out[26] *124:7 43.2333 
2 *124:7 *124:9 373.494 
3 *124:9 io_out[26] 21.4344 
*END

*D_NET *125 0.251806
*CONN
*P io_out[27] O
*I *804:io_out[27] O *D picorv32_soc
*CAP
1 io_out[27] 0.00996131
2 *804:io_out[27] 0.00519112
3 *125:9 0.0941483
4 *125:7 0.0893781
5 *85:9 *125:9 0
6 *88:9 *125:9 0
7 *92:9 *125:9 0.0531276
*RES
1 *804:io_out[27] *125:7 23.9992 
2 *125:7 *125:9 332.621 
3 *125:9 io_out[27] 40.9075 
*END

*D_NET *126 0.211236
*CONN
*P io_out[28] O
*I *804:io_out[28] O *D picorv32_soc
*CAP
1 io_out[28] 0.00367872
2 *804:io_out[28] 0.000100053
3 *126:23 0.0184376
4 *126:21 0.0147588
5 *126:19 0.0588251
6 *126:17 0.0592269
7 *126:11 0.00579182
8 *126:9 0.00549004
9 *126:11 *725:23 0
10 *126:11 *727:18 0.00244026
11 *126:11 *756:18 0.0151552
12 *126:17 *129:19 0.000108103
13 *126:17 *759:17 1.78614e-05
14 *126:19 *127:9 0.0174231
15 *126:19 *131:9 0.00272467
16 *126:19 *788:23 0.000312711
17 *126:19 *788:25 0.000317916
18 *46:15 *126:19 0.00642663
19 *88:15 *126:23 0
*RES
1 *804:io_out[28] *126:9 8.25387 
2 *126:9 *126:11 193.119 
3 *126:11 *126:17 17.1293 
4 *126:17 *126:19 244.022 
5 *126:19 *126:21 8 
6 *126:21 *126:23 47.2827 
7 *126:23 io_out[28] 28.9341 
*END

*D_NET *127 0.230701
*CONN
*P io_out[29] O
*I *804:io_out[29] O *D picorv32_soc
*CAP
1 io_out[29] 0.000135281
2 *804:io_out[29] 0.000618223
3 *127:21 0.021414
4 *127:19 0.0233646
5 *127:15 0.0147394
6 *127:9 0.0367814
7 *127:7 0.024746
8 *127:9 *726:27 0.00196716
9 *127:9 *745:10 0.00644273
10 *127:9 *759:13 0.00254158
11 *127:9 *788:25 0
12 *127:9 *791:13 0.00196716
13 *127:9 *798:23 0.00707061
14 *127:9 *799:27 0.00325707
15 *127:19 io_out[31] 0.00020484
16 *127:21 *129:27 0.0207617
17 *46:15 *127:9 0.047266
18 *126:19 *127:9 0.0174231
*RES
1 *804:io_out[29] *127:7 9.5736 
2 *127:7 *127:9 152.63 
3 *127:9 *127:15 48.9397 
4 *127:15 *127:19 14.4101 
5 *127:19 *127:21 97.5408 
6 *127:21 io_out[29] 8.53573 
*END

*D_NET *128 0.453891
*CONN
*P io_out[2] O
*I *804:io_out[2] O *D picorv32_soc
*CAP
1 io_out[2] 0.00654906
2 *804:io_out[2] 0.0149942
3 *128:21 0.047399
4 *128:19 0.0486145
5 *128:5 0.0227587
6 *128:19 *685:14 0
7 *128:21 *651:16 0.0044457
8 *61:13 *128:21 0.120889
9 *90:13 *128:21 0.181263
10 *90:21 io_out[2] 0.00697758
*RES
1 *804:io_out[2] *128:5 47.2547 
2 *128:5 *128:19 38.6131 
3 *128:19 *128:21 334.077 
4 *128:21 io_out[2] 43.2179 
*END

*D_NET *129 0.187937
*CONN
*P io_out[30] O
*I *804:io_out[30] O *D picorv32_soc
*CAP
1 io_out[30] 0.0001396
2 *804:io_out[30] 0.000293325
3 *129:27 0.0300359
4 *129:25 0.030405
5 *129:19 0.0160791
6 *129:13 0.0155704
7 *129:11 0.00616111
8 *129:9 0.00645443
9 *129:11 *131:9 0.0211437
10 *129:11 *727:18 0.0115307
11 *129:19 *759:17 0.000574501
12 *129:19 *799:25 0
13 *129:25 *132:9 0.000447789
14 *129:27 io_out[31] 0.000325813
15 *129:27 io_out[32] 0.000403009
16 *129:27 io_out[33] 0.000248617
17 *129:27 *130:9 0.0224836
18 *129:27 *132:9 0.00436934
19 io_oeb[32] *129:27 0.000325813
20 io_oeb[33] *129:25 7.5177e-05
21 *804:io_in[23] *129:19 0
22 *83:6 *129:19 0
23 *94:13 *129:19 0
24 *126:17 *129:19 0.000108103
25 *127:21 *129:27 0.0207617
*RES
1 *804:io_out[30] *129:9 8.76347 
2 *129:9 *129:11 50.1947 
3 *129:11 *129:13 8 
4 *129:13 *129:19 48.7237 
5 *129:19 *129:25 10.4155 
6 *129:25 *129:27 156.337 
7 *129:27 io_out[30] 8.53573 
*END

*D_NET *130 0.151456
*CONN
*P io_out[31] O
*I *804:io_out[31] O *D picorv32_soc
*CAP
1 io_out[31] 0.000244024
2 *804:io_out[31] 0.014662
3 *130:9 0.034618
4 *130:7 0.034374
5 *130:5 0.014662
6 *130:9 *132:9 0.0298817
7 *127:19 io_out[31] 0.00020484
8 *129:27 io_out[31] 0.000325813
9 *129:27 *130:9 0.0224836
*RES
1 *804:io_out[31] *130:5 48.1133 
2 *130:5 *130:7 8 
3 *130:7 *130:9 167.862 
4 *130:9 io_out[31] 8.9352 
*END

*D_NET *131 0.134517
*CONN
*P io_out[32] O
*I *804:io_out[32] O *D picorv32_soc
*CAP
1 io_out[32] 0.00233166
2 *804:io_out[32] 0.000122978
3 *131:13 0.0156379
4 *131:9 0.037021
5 *131:7 0.0238377
6 *131:9 *727:18 0.00253609
7 *131:9 *788:23 0.000280131
8 *131:9 *788:25 0.0284785
9 *126:19 *131:9 0.00272467
10 *129:11 *131:9 0.0211437
11 *129:27 io_out[32] 0.000403009
*RES
1 *804:io_out[32] *131:7 8.37147 
2 *131:7 *131:9 126.482 
3 *131:9 *131:13 49.9589 
4 *131:13 io_out[32] 7.21093 
*END

*D_NET *132 0.106892
*CONN
*P io_out[33] O
*I *804:io_out[33] O *D picorv32_soc
*CAP
1 io_out[33] 0.000210758
2 *804:io_out[33] 0.0148491
3 *132:9 0.0129953
4 *132:7 0.0127846
5 *132:5 0.0148491
6 *132:9 *133:9 0.0157247
7 io_oeb[33] *132:9 0.000531444
8 *58:13 *132:5 0
9 *129:25 *132:9 0.000447789
10 *129:27 io_out[33] 0.000248617
11 *129:27 *132:9 0.00436934
12 *130:9 *132:9 0.0298817
*RES
1 *804:io_out[33] *132:5 48.2851 
2 *132:5 *132:7 8 
3 *132:7 *132:9 85.8629 
4 *132:9 io_out[33] 8.63653 
*END

*D_NET *133 0.0618766
*CONN
*P io_out[34] O
*I *804:io_out[34] O *D picorv32_soc
*CAP
1 io_out[34] 0.0001396
2 *804:io_out[34] 0.0145267
3 *133:9 0.00854923
4 *133:7 0.00840963
5 *133:5 0.0145267
6 *132:9 *133:9 0.0157247
*RES
1 *804:io_out[34] *133:5 48.4568 
2 *133:5 *133:7 8 
3 *133:7 *133:9 44.7365 
4 *133:9 io_out[34] 8.53573 
*END

*D_NET *134 0.0312971
*CONN
*P io_out[35] O
*I *804:io_out[35] O *D picorv32_soc
*CAP
1 io_out[35] 0.00115381
2 *804:io_out[35] 0.0144947
3 *134:5 0.0156485
*RES
1 *804:io_out[35] *134:5 48.6285 
2 *134:5 io_out[35] 20.1459 
*END

*D_NET *135 0.0478773
*CONN
*P io_out[36] O
*I *804:io_out[36] O *D picorv32_soc
*CAP
1 io_out[36] 0.00548302
2 *804:io_out[36] 0.0147402
3 *135:5 0.0202232
4 io_out[36] *136:9 0.00743084
*RES
1 *804:io_out[36] *135:5 48.2851 
2 *135:5 io_out[36] 31.5883 
*END

*D_NET *136 0.0765973
*CONN
*P io_out[37] O
*I *804:io_out[37] O *D picorv32_soc
*CAP
1 io_out[37] 0.0001396
2 *804:io_out[37] 0.0148757
3 *136:9 0.00890636
4 *136:7 0.00876676
5 *136:5 0.0148757
6 io_out[36] *136:9 0.00743084
7 *98:9 *136:9 0.0216023
*RES
1 *804:io_out[37] *136:5 48.4568 
2 *136:5 *136:7 8 
3 *136:7 *136:9 53.2411 
4 *136:9 io_out[37] 8.53573 
*END

*D_NET *137 0.32314
*CONN
*P io_out[3] O
*I *804:io_out[3] O *D picorv32_soc
*CAP
1 io_out[3] 0.0335336
2 *804:io_out[3] 0.000571987
3 *137:21 0.0335336
4 *137:19 0.015024
5 *137:17 0.015024
6 *137:15 0.0614094
7 *137:13 0.0614094
8 *137:11 0.00292588
9 *137:9 0.00349786
10 *137:11 *738:23 0.0112709
11 *137:11 *761:21 0
12 *137:15 *138:21 0.0110466
13 *137:15 *688:21 0.000466666
14 *137:19 *696:5 0
15 io_oeb[1] *137:15 0
16 *61:13 *137:15 0
17 *61:17 *137:11 0.00684354
18 *63:13 *137:15 0.0665829
*RES
1 *804:io_out[3] *137:9 9.064 
2 *137:9 *137:11 145.228 
3 *137:11 *137:13 8 
4 *137:13 *137:15 272.511 
5 *137:15 *137:17 8 
6 *137:17 *137:19 348.766 
7 *137:19 *137:21 8 
8 *137:21 io_out[3] 111.268 
*END

*D_NET *138 0.436062
*CONN
*P io_out[4] O
*I *804:io_out[4] O *D picorv32_soc
*CAP
1 io_out[4] 6.73184e-05
2 *804:io_out[4] 0.0137944
3 *138:29 0.0143211
4 *138:27 0.014518
5 *138:21 0.129567
6 *138:11 0.137127
7 *138:5 0.0216188
8 *138:11 *139:17 0.000129003
9 *138:11 *682:10 0.000129003
10 *138:11 *748:15 0.00250537
11 *138:11 *749:15 0.00286474
12 *138:11 *750:15 0.00286474
13 *138:11 *751:15 0.00499617
14 *138:21 *651:16 0
15 io_oeb[1] *138:21 0.00651742
16 *52:19 *138:21 0.000852445
17 *62:25 *138:21 0.00027497
18 *62:25 *138:27 1.9731e-05
19 *63:9 *138:29 0.0410383
20 *63:13 *138:21 0.0165295
21 *63:17 *138:11 0.000157385
22 *63:27 *138:5 0
23 *90:11 *138:11 0
24 *99:23 *138:29 0.00838647
25 *100:11 *138:11 0.00673749
26 *137:15 *138:21 0.0110466
*RES
1 *804:io_out[4] *138:5 43.82 
2 *138:5 *138:11 40.8073 
3 *138:11 *138:21 46.5293 
4 *138:21 *138:27 16.5283 
5 *138:27 *138:29 521.316 
6 *138:29 io_out[4] 8.1568 
*END

*D_NET *139 0.461003
*CONN
*P io_out[5] O
*I *804:io_out[5] O *D picorv32_soc
*CAP
1 io_out[5] 3.20863e-05
2 *804:io_out[5] 0.0136154
3 *139:37 0.00215751
4 *139:33 0.0126994
5 *139:31 0.010574
6 *139:29 0.0452582
7 *139:27 0.0453439
8 *139:21 0.0266573
9 *139:19 0.0265716
10 *139:17 0.00241433
11 *139:15 0.00400103
12 *139:5 0.0152021
13 *139:15 *682:10 0.000232206
14 *139:15 *748:15 0.000360225
15 *139:15 *749:15 0.000404746
16 *139:15 *750:15 0.000199814
17 *139:15 *751:15 0.000342844
18 *139:17 *682:10 0.0158966
19 *139:17 *748:15 0.000258376
20 *139:21 *646:9 0
21 *139:21 *647:9 0
22 *139:21 *648:9 0.00444405
23 *139:21 *651:16 0.00102758
24 *139:21 *652:9 0.00148879
25 *139:21 *653:9 7.87639e-05
26 *139:29 *646:17 0.0205606
27 *139:29 *647:17 2.1819e-05
28 *139:29 *691:11 0.0024797
29 *52:19 *139:33 0.00072854
30 *63:9 *139:33 0.0546007
31 *63:17 *139:17 0.0151358
32 *63:27 *139:15 0.00157498
33 *79:10 *139:21 0.0841313
34 *79:10 *139:29 0.00207498
35 *79:18 *139:29 0
36 *100:5 *139:15 0
37 *100:11 *139:15 0.000291694
38 *100:11 *139:17 0.00273753
39 *100:23 *139:33 0.0472755
40 *138:11 *139:17 0.000129003
*RES
1 *804:io_out[5] *139:5 43.82 
2 *139:5 *139:15 30.2104 
3 *139:15 *139:17 202.275 
4 *139:17 *139:19 8 
5 *139:19 *139:21 154.702 
6 *139:21 *139:27 24.3775 
7 *139:27 *139:29 1028.75 
8 *139:29 *139:31 15 
9 *139:31 *139:33 722.11 
10 *139:33 *139:37 48.7614 
11 *139:37 io_out[5] 8.07093 
*END

*D_NET *140 0.367191
*CONN
*P io_out[6] O
*I *804:io_out[6] O *D picorv32_soc
*CAP
1 io_out[6] 0.00308101
2 *804:io_out[6] 0.00188534
3 *140:13 0.0831268
4 *140:11 0.0800458
5 *140:9 0.0322444
6 *140:7 0.0341297
7 *140:13 *802:A0[7] 0
8 *140:13 *646:25 0.00119991
9 *140:13 *647:25 0.00180609
10 *140:13 *648:33 0.0200303
11 *140:13 *657:8 0
12 *140:13 *658:8 0
13 *140:13 *658:10 0.029776
14 *140:13 *659:16 0.000713886
15 *140:13 *664:28 0.000294933
16 *140:13 *682:8 0
17 *140:13 *686:16 0.00660211
18 *140:13 *687:12 0
19 io_oeb[6] *140:13 2.195e-05
20 *34:9 *140:9 0.0399403
21 *35:9 *140:9 0
22 *64:11 io_out[6] 0.00280687
23 *64:13 *140:13 0.0283876
24 *102:19 *140:13 0.00109851
*RES
1 *804:io_out[6] *140:7 13.18 
2 *140:7 *140:9 140.317 
3 *140:9 *140:11 8 
4 *140:11 *140:13 379.071 
5 *140:13 io_out[6] 29.6136 
*END

*D_NET *141 0.397651
*CONN
*P io_out[7] O
*I *804:io_out[7] O *D picorv32_soc
*CAP
1 io_out[7] 0.102583
2 *804:io_out[7] 0.0126966
3 *141:11 0.102583
4 *141:9 0.036499
5 *141:7 0.0491957
6 *141:9 *747:5 0.00295786
7 *141:9 *752:27 0.00526599
8 *141:9 *753:27 0.003947
9 *141:9 *754:31 0.00287079
10 *141:9 *755:13 0.00291753
11 *141:9 *757:13 0.00436655
12 *141:9 *758:13 0.00293206
13 *141:9 *780:13 0.00254129
14 *141:9 *781:13 0.00350237
15 *141:9 *782:13 0.00459423
16 *32:9 *141:9 0
17 *33:9 *141:9 0.0581972
*RES
1 *804:io_out[7] *141:7 49.244 
2 *141:7 *141:9 170.02 
3 *141:9 *141:11 8 
4 *141:11 io_out[7] 342.979 
*END

*D_NET *142 0.389821
*CONN
*P io_out[8] O
*I *804:io_out[8] O *D picorv32_soc
*CAP
1 io_out[8] 0.110984
2 *804:io_out[8] 0.00447061
3 *142:11 0.110984
4 *142:9 0.0476801
5 *142:7 0.0521507
6 *65:9 *142:9 0.0635515
7 *109:9 *142:9 0
*RES
1 *804:io_out[8] *142:7 21.9384 
2 *142:7 *142:9 212.669 
3 *142:9 *142:11 8 
4 *142:11 io_out[8] 370.285 
*END

*D_NET *143 0.388908
*CONN
*P io_out[9] O
*I *804:io_out[9] O *D picorv32_soc
*CAP
1 io_out[9] 0.114418
2 *804:io_out[9] 0.00108018
3 *143:11 0.114418
4 *143:9 0.0687413
5 *143:7 0.0698215
6 *143:9 *740:10 0.00992323
7 *143:9 *741:13 0.00359636
8 *143:9 *769:15 0.00690873
9 *67:9 *143:9 0
10 *69:9 *143:9 0
11 *73:9 *143:9 0
*RES
1 *804:io_out[9] *143:7 10.4323 
2 *143:7 *143:9 255.446 
3 *143:9 *143:11 8 
4 *143:11 io_out[9] 381.791 
*END

*D_NET *529 0.461457
*CONN
*P user_irq[0] O
*I *804:irq_out[0] O *D picorv32_soc
*CAP
1 user_irq[0] 0.00158438
2 *804:irq_out[0] 0.013642
3 *529:32 0.00961328
4 *529:30 0.0080289
5 *529:28 0.0830241
6 *529:26 0.0834443
7 *529:16 0.0140622
8 user_irq[0] *530:18 0
9 *529:16 *545:19 0.00120559
10 *529:16 *727:24 3.65542e-05
11 *529:26 *609:17 0.000240368
12 *529:28 *803:cpu_mem_wdata[14] 0.00105991
13 *529:28 *551:19 0.00267646
14 *529:28 *562:27 0.183086
15 *529:28 *584:19 0.0215952
16 *529:28 *588:35 0.00181794
17 *529:28 *650:6 0.0172294
18 *529:28 *681:27 0.0132696
19 *529:28 *682:14 0.000875874
20 *529:28 *687:30 0
21 *529:28 *703:8 0.00115838
22 *529:28 *705:8 0.000271585
23 *529:28 *706:8 0.000288936
24 *529:28 *738:11 0
25 *529:28 *739:13 0.00138854
26 *529:28 *748:11 0.000544289
27 *529:28 *750:11 0.00059652
28 *529:28 *751:11 0
29 *529:28 *770:29 0.00071676
30 *529:32 *530:18 0
*RES
1 *804:irq_out[0] *529:16 44.4358 
2 *529:16 *529:26 37.0456 
3 *529:26 *529:28 2615.26 
4 *529:28 *529:30 15 
5 *529:30 *529:32 186.087 
6 *529:32 user_irq[0] 36.4675 
*END

*D_NET *530 0.324784
*CONN
*P user_irq[1] O
*I *804:irq_out[1] O *D picorv32_soc
*CAP
1 user_irq[1] 0.000438582
2 *804:irq_out[1] 0.00213627
3 *530:18 0.0144495
4 *530:16 0.0140109
5 *530:14 0.133232
6 *530:12 0.135368
7 user_irq[1] user_irq[2] 0.000809672
8 *530:12 *792:33 4.00623e-05
9 *530:14 *540:29 0
10 *530:14 *699:9 0
11 *530:14 *717:9 0
12 *530:14 *719:9 0.0242986
13 user_irq[0] *530:18 0
14 *106:13 *530:14 0
15 *529:32 *530:18 0
*RES
1 *804:irq_out[1] *530:12 31.2445 
2 *530:12 *530:14 459.486 
3 *530:14 *530:16 8 
4 *530:16 *530:18 323.412 
5 *530:18 user_irq[1] 19.4939 
*END

*D_NET *531 0.44041
*CONN
*P user_irq[2] O
*I *804:irq_out[2] O *D picorv32_soc
*CAP
1 user_irq[2] 0.00299701
2 *804:irq_out[2] 0.00704413
3 *531:18 0.013292
4 *531:16 0.010295
5 *531:14 0.0862067
6 *531:12 0.0932509
7 *531:12 *803:cpu_mem_addr[7] 0.00370046
8 *531:12 *792:33 4.00623e-05
9 *531:14 *685:18 0
10 *531:14 *704:9 0
11 *531:14 *708:9 0
12 *531:14 *709:11 0
13 *531:14 *724:14 0.0282866
14 *531:14 *782:19 0.00217254
15 *531:14 *783:19 0
16 *531:14 *787:22 0
17 *531:14 *789:17 0
18 *531:14 *790:17 0
19 user_irq[1] user_irq[2] 0.000809672
20 *41:5 *531:14 0.192315
*RES
1 *804:irq_out[2] *531:12 46.7304 
2 *531:12 *531:14 429.432 
3 *531:14 *531:16 8 
4 *531:16 *531:18 238.194 
5 *531:18 user_irq[2] 27.9477 
*END

*D_NET *540 0.235958
*CONN
*P wb_clk_i I
*I *802:CLK I *D DFFRAM512x32
*I *804:clk I *D picorv32_soc
*I *803:clk I *D memory_macro
*CAP
1 wb_clk_i 0.00507478
2 *802:CLK 0
3 *804:clk 0
4 *803:clk 4.00017e-05
5 *540:44 0.0275883
6 *540:37 0.030731
7 *540:29 0.03453
8 *540:27 0.0313872
9 *540:25 0.0159238
10 *540:23 0.0161625
11 *540:11 0.00535349
12 *540:11 *803:wbs_cyc_i 0.00473903
13 *540:23 *803:wbs_cyc_i 0.000375111
14 *540:37 *763:21 0.000100561
15 *540:44 *804:rst_n 4.00623e-05
16 *540:44 *763:21 0.00954783
17 *61:13 *540:44 0
18 *79:10 *540:44 0.0543646
19 *530:14 *540:29 0
*RES
1 wb_clk_i *540:11 42.2325 
2 *540:11 *803:clk 8.77679 
3 *540:11 *540:23 9.30107 
4 *540:23 *540:25 54.6373 
5 *540:25 *540:27 8 
6 *540:27 *540:29 105.329 
7 *540:29 *540:37 24.8088 
8 *540:37 *804:clk 8 
9 *540:37 *540:44 133.903 
10 *540:44 *802:CLK 8 
*END

*D_NET *541 0.133274
*CONN
*P wb_rst_i I
*I *803:rst_n I *D memory_macro
*I *804:rst_n I *D picorv32_soc
*CAP
1 wb_rst_i 0.00784243
2 *803:rst_n 4.00017e-05
3 *804:rst_n 0.00542808
4 *541:51 0.0430422
5 *541:49 0.0376141
6 *541:47 0.0133116
7 *541:45 0.0133509
8 *541:39 0.000511742
9 *541:35 0.00152534
10 *541:27 0.00893535
11 *541:27 *568:9 9.56652e-05
12 *541:27 *598:15 4.93791e-05
13 *541:27 *601:29 0
14 *541:27 *619:29 0.000619238
15 *541:27 *642:17 4.93791e-05
16 *541:35 *565:15 0.000695747
17 *541:35 *568:11 0
18 *541:35 *643:11 2.84357e-05
19 *541:39 *569:9 6.8113e-05
20 *541:45 *803:wbs_cyc_i 2.6427e-05
21 *540:44 *804:rst_n 4.00623e-05
*RES
1 wb_rst_i *541:27 41.2982 
2 *541:27 *541:35 38.1793 
3 *541:35 *541:39 23.0682 
4 *541:39 *541:45 16.0989 
5 *541:45 *541:47 45.6251 
6 *541:47 *541:49 8 
7 *541:49 *541:51 124.391 
8 *541:51 *804:rst_n 41.6531 
9 *541:39 *803:rst_n 0.776786 
*END

*D_NET *542 0.0351484
*CONN
*P wbs_ack_o O
*I *803:wbs_ack_o O *D memory_macro
*CAP
1 wbs_ack_o 8.66535e-05
2 *803:wbs_ack_o 0.00395527
3 *542:9 0.00404192
4 *542:9 *576:15 0.000164216
5 *542:9 *603:27 7.47186e-05
6 *542:9 *633:25 0.000374079
7 *542:9 *644:11 0.0132884
8 *542:9 *645:13 0.0123218
9 *542:9 *645:23 0.000841375
*RES
1 *803:wbs_ack_o *542:9 49.4513 
2 *542:9 wbs_ack_o 9.97821 
*END

*D_NET *543 0.0502907
*CONN
*P wbs_adr_i[0] I
*I *803:wbs_adr_i[0] I *D memory_macro
*CAP
1 wbs_adr_i[0] 0.000596868
2 *803:wbs_adr_i[0] 8.40909e-05
3 *543:17 0.00469617
4 *543:9 0.00520895
5 *543:17 wbs_dat_o[8] 5.22967e-05
6 *543:17 wbs_dat_o[9] 0.00230048
7 *543:17 *803:wbs_cyc_i 0.0146324
8 *543:17 *803:wbs_stb_i 0.000857083
9 *543:17 *803:wbs_we_i 0.00115534
10 *543:17 *601:35 0.000718205
11 *543:17 *608:9 0.0199888
*RES
1 wbs_adr_i[0] *543:9 21.3918 
2 *543:9 *543:17 49.7237 
3 *543:17 *803:wbs_adr_i[0] 1.48107 
*END

*D_NET *544 0.19835
*CONN
*P wbs_adr_i[10] I
*I *803:wbs_adr_i[10] I *D memory_macro
*CAP
1 wbs_adr_i[10] 0.000281618
2 *803:wbs_adr_i[10] 0.0273721
3 *544:59 0.0554269
4 *544:21 0.0284751
5 *544:11 0.00374251
6 *544:9 0.00360382
7 *803:wbs_adr_i[10] *803:wbs_dat_i[10] 5.45304e-05
8 *803:wbs_adr_i[10] *803:wbs_dat_i[8] 0.00229842
9 *803:wbs_adr_i[10] *605:43 0.0107203
10 *803:wbs_adr_i[10] *622:17 4.93791e-05
11 *544:11 *572:13 0.00308119
12 *544:11 *577:11 0.0022339
13 *544:11 *582:11 0.00228712
14 *544:11 *606:11 0.0196918
15 *544:11 *610:9 0.000104089
16 *544:11 *617:9 0.000331291
17 *544:11 *618:9 0.000450659
18 *544:11 *621:9 3.3577e-05
19 *544:11 *634:27 0.00855797
20 *544:21 wbs_dat_o[21] 3.48437e-05
21 *544:21 *555:25 0.000117341
22 *544:21 *580:11 0.000351651
23 *544:21 *604:11 0.000662133
24 *544:59 *803:wbs_dat_i[8] 0.000343682
25 *544:59 *600:21 0.00793781
26 *544:59 *605:43 0.00890764
27 *544:59 *611:29 0.0111983
*RES
1 wbs_adr_i[10] *544:9 17.5271 
2 *544:9 *544:11 215.491 
3 *544:11 *544:21 36.4098 
4 *544:21 *544:59 46.0136 
5 *544:59 *803:wbs_adr_i[10] 39.5999 
*END

*D_NET *545 0.291813
*CONN
*P wbs_adr_i[11] I
*I *803:wbs_adr_i[11] I *D memory_macro
*CAP
1 wbs_adr_i[11] 0.000266533
2 *803:wbs_adr_i[11] 0.000275689
3 *545:23 0.0124725
4 *545:19 0.0315281
5 *545:17 0.0314554
6 *545:13 0.0123906
7 *803:wbs_adr_i[11] *581:11 0.000262634
8 *803:wbs_adr_i[11] *593:25 0.000101685
9 *803:wbs_adr_i[11] *622:17 0.000459141
10 *545:13 *571:9 0.00014572
11 *545:13 *572:13 0.000139791
12 *545:17 *609:21 0
13 *545:17 *788:25 0.000406248
14 *545:19 *803:cpu_mem_addr[2] 0
15 *545:19 *803:cpu_mem_wdata[2] 0
16 *545:19 *546:19 0.0913744
17 *545:19 *552:21 0.0153768
18 *545:19 *609:17 0.0939525
19 *545:19 *685:18 0
20 *529:16 *545:19 0.00120559
*RES
1 wbs_adr_i[11] *545:13 18.1453 
2 *545:13 *545:17 48.4208 
3 *545:17 *545:19 177.972 
4 *545:19 *545:23 46.136 
5 *545:23 *803:wbs_adr_i[11] 18.3528 
*END

*D_NET *546 0.287885
*CONN
*P wbs_adr_i[12] I
*I *803:wbs_adr_i[12] I *D memory_macro
*CAP
1 wbs_adr_i[12] 0.000236147
2 *803:wbs_adr_i[12] 0.000109622
3 *546:31 0.0121034
4 *546:25 0.0144067
5 *546:19 0.0243715
6 *546:17 0.0341529
7 *546:13 0.0124305
8 *546:13 *571:9 5.10545e-05
9 *546:13 *572:13 4.62763e-05
10 *546:19 *803:cpu_mem_wdata[2] 0
11 *546:19 *803:cpu_mem_wdata[3] 0
12 *546:19 *614:17 0.0882039
13 *546:19 *685:18 0
14 *546:19 *756:10 6.07327e-06
15 *546:19 *784:27 0.00455715
16 *546:25 *552:21 0.00111558
17 *546:25 *614:17 0.00259593
18 *546:25 *685:18 0
19 *546:25 *752:15 9.14695e-05
20 *546:25 *753:15 9.14695e-05
21 *546:25 *784:27 0.000616139
22 *546:31 *579:35 0.00062247
23 *546:31 *622:17 0.000595877
24 *546:31 *625:9 0.000106936
25 *545:19 *546:19 0.0913744
*RES
1 wbs_adr_i[12] *546:13 17.9736 
2 *546:13 *546:17 48.2939 
3 *546:17 *546:19 180.462 
4 *546:19 *546:25 18.6288 
5 *546:25 *546:31 47.2653 
6 *546:31 *803:wbs_adr_i[12] 9.48107 
*END

*D_NET *547 0.216548
*CONN
*P wbs_adr_i[13] I
*I *803:wbs_adr_i[13] I *D memory_macro
*CAP
1 wbs_adr_i[13] 0.000592738
2 *803:wbs_adr_i[13] 0.000932047
3 *547:27 0.0378173
4 *547:25 0.0383553
5 *547:15 0.00220761
6 *547:9 0.00133026
7 *803:wbs_adr_i[13] *581:11 5.56761e-05
8 *803:wbs_adr_i[13] *622:17 9.44959e-05
9 *547:9 *607:15 0.000115009
10 *547:15 *604:11 0.000451095
11 *547:15 *635:33 0.00162505
12 *547:15 *643:11 0.000808471
13 *547:25 *580:11 0.000354428
14 *547:25 *604:11 0.000668426
15 *547:25 *614:21 0
16 *547:25 *635:33 0.000119931
17 *547:27 *548:19 0.104727
18 *547:27 *597:25 0.0169119
19 *547:27 *602:37 0.00912553
20 *547:27 *603:27 0.000256217
*RES
1 wbs_adr_i[13] *547:9 21.8771 
2 *547:9 *547:15 46.9104 
3 *547:15 *547:25 28.1907 
4 *547:25 *547:27 193.771 
5 *547:27 *803:wbs_adr_i[13] 27.2451 
*END

*D_NET *548 0.281207
*CONN
*P wbs_adr_i[14] I
*I *803:wbs_adr_i[14] I *D memory_macro
*CAP
1 wbs_adr_i[14] 0.00187915
2 *803:wbs_adr_i[14] 0.000857388
3 *548:19 0.0232763
4 *548:17 0.0242981
5 *803:wbs_adr_i[14] *581:11 5.56761e-05
6 *803:wbs_adr_i[14] *622:17 9.44959e-05
7 *548:17 wbs_dat_o[13] 0
8 *548:17 *571:9 5.10636e-05
9 *548:17 *572:13 4.62843e-05
10 *548:19 *553:19 0.102175
11 *548:19 *597:25 0.0187825
12 *548:19 *600:27 0.00220417
13 *548:19 *615:17 0.00209877
14 *548:19 *641:35 0.000661121
15 *547:27 *548:19 0.104727
*RES
1 wbs_adr_i[14] *548:17 29.7106 
2 *548:17 *548:19 212.147 
3 *548:19 *803:wbs_adr_i[14] 27.1181 
*END

*D_NET *549 0.239628
*CONN
*P wbs_adr_i[15] I
*I *803:wbs_adr_i[15] I *D memory_macro
*CAP
1 wbs_adr_i[15] 0.000200869
2 *803:wbs_adr_i[15] 0.000604726
3 *549:35 0.00777757
4 *549:33 0.0164502
5 *549:29 0.0670364
6 *549:21 0.0581295
7 *549:11 0.0020349
8 *549:9 0.00186524
9 *549:11 wbs_dat_o[20] 0.00043366
10 *549:11 *590:15 0.000383679
11 *549:11 *602:11 0.013576
12 *549:11 *605:11 0.013569
13 *549:11 *637:37 0.00212339
14 *549:21 *558:9 0.000204124
15 *549:21 *591:9 0
16 *549:21 *635:29 0.000329105
17 *549:21 *636:33 0.000335033
18 *549:29 *612:25 0.0131871
19 *549:35 *555:25 0.00452755
20 *549:35 *560:11 0.00240314
21 *549:35 *580:11 0.00780074
22 *549:35 *589:27 0.00591097
23 *549:35 *590:17 0.00590268
24 *549:35 *627:9 0.0148425
*RES
1 wbs_adr_i[15] *549:9 16.8229 
2 *549:9 *549:11 148.314 
3 *549:11 *549:21 35.8088 
4 *549:21 *549:29 48.5691 
5 *549:29 *549:33 36.9968 
6 *549:33 *549:35 50.8461 
7 *549:35 *803:wbs_adr_i[15] 17.2282 
*END

*D_NET *550 0.341962
*CONN
*P wbs_adr_i[16] I
*I *803:wbs_adr_i[16] I *D memory_macro
*CAP
1 wbs_adr_i[16] 0.000262949
2 *803:wbs_adr_i[16] 0.000133773
3 *550:23 0.0115729
4 *550:19 0.038556
5 *550:17 0.0393319
6 *550:13 0.012478
7 *803:wbs_adr_i[16] *583:11 2.03202e-05
8 *803:wbs_adr_i[16] *622:17 4.93791e-05
9 *550:13 *571:9 5.10545e-05
10 *550:13 *572:13 4.62763e-05
11 *550:17 *614:21 0
12 *550:19 *803:cpu_mem_wdata[3] 0
13 *550:19 *551:19 0.120981
14 *550:19 *584:19 0.000267338
15 *550:19 *614:17 0.118211
*RES
1 wbs_adr_i[16] *550:13 17.9736 
2 *550:13 *550:17 48.04 
3 *550:17 *550:19 234.3 
4 *550:19 *550:23 45.7552 
5 *550:23 *803:wbs_adr_i[16] 17.58 
*END

*D_NET *551 0.357408
*CONN
*P wbs_adr_i[17] I
*I *803:wbs_adr_i[17] I *D memory_macro
*CAP
1 wbs_adr_i[17] 0.000262949
2 *803:wbs_adr_i[17] 0.000134583
3 *551:23 0.0114718
4 *551:19 0.0397311
5 *551:17 0.0406845
6 *551:13 0.0125536
7 *803:wbs_adr_i[17] *585:11 1.59585e-05
8 *803:wbs_adr_i[17] *622:17 4.93791e-05
9 *551:13 *571:9 5.10545e-05
10 *551:13 *572:13 4.62763e-05
11 *551:17 *584:17 0
12 *551:19 *584:19 0.12875
13 *529:28 *551:19 0.00267646
14 *550:19 *551:19 0.120981
*RES
1 wbs_adr_i[17] *551:13 17.9736 
2 *551:13 *551:17 47.9131 
3 *551:17 *551:19 245.463 
4 *551:19 *551:23 45.6283 
5 *551:23 *803:wbs_adr_i[17] 17.58 
*END

*D_NET *552 0.331792
*CONN
*P wbs_adr_i[18] I
*I *803:wbs_adr_i[18] I *D memory_macro
*CAP
1 wbs_adr_i[18] 0.000293335
2 *803:wbs_adr_i[18] 0.000696291
3 *552:25 0.0121908
4 *552:21 0.124989
5 *552:17 0.124852
6 *552:13 0.011651
7 *803:wbs_adr_i[18] *585:11 0.000585383
8 *803:wbs_adr_i[18] *593:25 0.000462264
9 *803:wbs_adr_i[18] *622:9 0.00207282
10 *803:wbs_adr_i[18] *625:9 0.000393213
11 *552:13 *571:9 0.00014572
12 *552:13 *572:13 0.000139791
13 *552:17 wbs_dat_o[17] 0.000469073
14 *552:17 *577:29 0.00276392
15 *552:21 *803:cpu_mem_wdata[23] 0.000483596
16 *552:21 *609:17 0.0178877
17 *552:21 *685:18 0.00935174
18 *552:21 *789:17 0.00274702
19 *552:21 *790:17 0.00312502
20 *545:19 *552:21 0.0153768
21 *546:25 *552:21 0.00111558
*RES
1 wbs_adr_i[18] *552:13 18.1453 
2 *552:13 *552:17 41.5657 
3 *552:17 *552:21 31.2073 
4 *552:21 *552:25 46.3899 
5 *552:25 *803:wbs_adr_i[18] 13.444 
*END

*D_NET *553 0.281367
*CONN
*P wbs_adr_i[19] I
*I *803:wbs_adr_i[19] I *D memory_macro
*CAP
1 wbs_adr_i[19] 0.00276094
2 *803:wbs_adr_i[19] 0.000802028
3 *553:19 0.0406157
4 *553:17 0.0425746
5 *803:wbs_adr_i[19] *586:15 1.96573e-05
6 *803:wbs_adr_i[19] *622:9 9.44959e-05
7 *553:17 *572:25 0.00013279
8 *553:17 *580:11 0.00180425
9 *553:17 *582:25 0
10 *553:17 *604:11 0.00343953
11 *553:17 *635:33 0.000361321
12 *553:17 *641:35 5.19953e-05
13 *553:19 *597:25 0.020659
14 *553:19 *597:27 0
15 *553:19 *600:27 0.00704677
16 *553:19 *615:17 0.0588291
17 *553:19 *629:13 0
18 *548:19 *553:19 0.102175
*RES
1 wbs_adr_i[19] *553:17 39.275 
2 *553:17 *553:19 261.091 
3 *553:19 *803:wbs_adr_i[19] 26.9912 
*END

*D_NET *554 0.0790673
*CONN
*P wbs_adr_i[1] I
*I *803:wbs_adr_i[1] I *D memory_macro
*CAP
1 wbs_adr_i[1] 0.000514438
2 *803:wbs_adr_i[1] 0.000302118
3 *554:11 0.0061665
4 *554:9 0.00637882
5 *554:9 *640:9 0
6 *554:11 *569:11 0.000928229
7 *554:11 *573:11 0.000191477
8 *554:11 *581:11 0.000424598
9 *554:11 *583:11 0.000761202
10 *554:11 *587:11 0.0298537
11 *554:11 *630:21 0.00552209
12 *554:11 *640:11 0.0280242
*RES
1 wbs_adr_i[1] *554:9 19.0304 
2 *554:9 *554:11 56.728 
3 *554:11 *803:wbs_adr_i[1] 13.0025 
*END

*D_NET *555 0.342641
*CONN
*P wbs_adr_i[20] I
*I *803:wbs_adr_i[20] I *D memory_macro
*CAP
1 wbs_adr_i[20] 0.00088429
2 *803:wbs_adr_i[20] 0.00010313
3 *555:25 0.0921301
4 *555:15 0.0929112
5 *555:15 *570:11 0.000115009
6 *555:15 *607:15 0.000115009
7 *555:15 *618:9 9.59299e-05
8 *555:15 *637:37 5.56761e-05
9 *555:25 *803:wbs_sel_i[2] 0.00087382
10 *555:25 *560:11 0.0257154
11 *555:25 *580:11 0.0211066
12 *555:25 *582:21 0.000117341
13 *555:25 *585:11 0.0178819
14 *555:25 *586:15 0.022563
15 *555:25 *593:21 0.00253489
16 *555:25 *595:25 0.0358092
17 *555:25 *598:19 0.00115314
18 *555:25 *603:27 0.00316236
19 *555:25 *604:11 0.00097225
20 *555:25 *604:27 0.000975456
21 *555:25 *622:9 0.000367979
22 *555:25 *627:9 0.0164685
23 *555:25 *635:29 0.000603291
24 *555:25 *642:25 0.00128009
25 *544:21 *555:25 0.000117341
26 *549:35 *555:25 0.00452755
*RES
1 wbs_adr_i[20] *555:15 20.3793 
2 *555:15 *555:25 43.9842 
3 *555:25 *803:wbs_adr_i[20] 9.48107 
*END

*D_NET *556 0.329738
*CONN
*P wbs_adr_i[21] I
*I *803:wbs_adr_i[21] I *D memory_macro
*CAP
1 wbs_adr_i[21] 0.000974364
2 *803:wbs_adr_i[21] 0.000148822
3 *556:11 0.0208353
4 *556:9 0.0216608
5 *556:9 *582:21 2.35206e-05
6 *556:9 *635:29 7.10189e-05
7 *556:11 *557:11 0.145478
8 *556:11 *565:19 0.000817777
9 *556:11 *578:11 0.0765646
10 *556:11 *581:11 0.0192667
11 *556:11 *583:11 0.00151102
12 *556:11 *593:25 0.0401325
13 *556:11 *622:9 0.00225265
14 *556:11 *633:17 0
*RES
1 wbs_adr_i[21] *556:9 28.6714 
2 *556:9 *556:11 1609.52 
3 *556:11 *803:wbs_adr_i[21] 17.3614 
*END

*D_NET *557 0.367596
*CONN
*P wbs_adr_i[22] I
*I *803:wbs_adr_i[22] I *D memory_macro
*CAP
1 wbs_adr_i[22] 0.000959541
2 *803:wbs_adr_i[22] 0.000167644
3 *557:11 0.0199961
4 *557:9 0.020788
5 *557:11 *558:11 0.15107
6 *557:11 *581:11 0.0218948
7 *557:11 *583:11 0.0017081
8 *557:11 *593:25 0.00288528
9 *557:11 *622:9 0.0026486
10 *557:11 *633:17 0
11 *556:11 *557:11 0.145478
*RES
1 wbs_adr_i[22] *557:9 28.0914 
2 *557:9 *557:11 1669.07 
3 *557:11 *803:wbs_adr_i[22] 17.7136 
*END

*D_NET *558 0.377663
*CONN
*P wbs_adr_i[23] I
*I *803:wbs_adr_i[23] I *D memory_macro
*CAP
1 wbs_adr_i[23] 0.00085431
2 *803:wbs_adr_i[23] 0.000168341
3 *558:11 0.0206903
4 *558:9 0.0213763
5 *558:9 *607:15 0.000115009
6 *558:11 *559:11 0.156643
7 *558:11 *560:11 0.000227228
8 *558:11 *583:11 0.0215238
9 *558:11 *593:25 0.00217215
10 *558:11 *595:27 0.00242786
11 *558:11 *633:17 0.000191384
12 *549:21 *558:9 0.000204124
13 *557:11 *558:11 0.15107
*RES
1 wbs_adr_i[23] *558:9 28.2157 
2 *558:9 *558:11 1730.06 
3 *558:11 *803:wbs_adr_i[23] 18.0657 
*END

*D_NET *559 0.394114
*CONN
*P wbs_adr_i[24] I
*I *803:wbs_adr_i[24] I *D memory_macro
*CAP
1 wbs_adr_i[24] 0.000969611
2 *803:wbs_adr_i[24] 0.000183767
3 *559:11 0.0220422
4 *559:9 0.0228281
5 *559:9 wbs_dat_o[20] 0.000252586
6 *559:9 *606:25 0.000161253
7 *559:9 *607:15 0.000170405
8 *559:9 *643:25 0
9 *559:11 *560:11 0.000227228
10 *559:11 *561:11 0.160742
11 *559:11 *568:11 0.00014448
12 *559:11 *583:11 0.0244088
13 *559:11 *593:25 0.000826911
14 *559:11 *595:27 0.00396832
15 *559:11 *633:17 0.000545617
16 *558:11 *559:11 0.156643
*RES
1 wbs_adr_i[24] *559:9 28.8164 
2 *559:9 *559:11 1791.04 
3 *559:11 *803:wbs_adr_i[24] 18.4179 
*END

*D_NET *560 0.427749
*CONN
*P wbs_adr_i[25] I
*I *803:wbs_adr_i[25] I *D memory_macro
*CAP
1 wbs_adr_i[25] 0.000771699
2 *803:wbs_adr_i[25] 0.000344455
3 *560:11 0.0525773
4 *560:9 0.0530046
5 *560:9 *605:21 0
6 *560:11 *803:wbs_dat_i[5] 4.93791e-05
7 *560:11 *803:wbs_sel_i[2] 0.00389034
8 *560:11 *561:11 0.000281561
9 *560:11 *563:11 0.000345039
10 *560:11 *564:11 0.000390795
11 *560:11 *566:11 0.000441767
12 *560:11 *567:11 0.0546904
13 *560:11 *568:11 0.00104402
14 *560:11 *569:11 0.00235964
15 *560:11 *573:11 0.00560903
16 *560:11 *574:11 0.0118069
17 *560:11 *580:11 0.0248323
18 *560:11 *586:15 0.13672
19 *560:11 *593:21 0.00642068
20 *560:11 *595:27 0.0390357
21 *560:11 *602:37 9.59396e-05
22 *560:11 *604:27 0.00446434
23 *560:11 *622:9 0
24 *560:11 *627:9 0
25 *549:35 *560:11 0.00240314
26 *555:25 *560:11 0.0257154
27 *558:11 *560:11 0.000227228
28 *559:11 *560:11 0.000227228
*RES
1 wbs_adr_i[25] *560:9 18.0982 
2 *560:9 *560:11 334.163 
3 *560:11 *803:wbs_adr_i[25] 13.7068 
*END

*D_NET *561 0.416322
*CONN
*P wbs_adr_i[26] I
*I *803:wbs_adr_i[26] I *D memory_macro
*CAP
1 wbs_adr_i[26] 0.000842387
2 *803:wbs_adr_i[26] 0.000178319
3 *561:11 0.0251487
4 *561:9 0.0258128
5 *561:9 *588:21 0.000101861
6 *561:11 *563:11 0.171997
7 *561:11 *568:11 0.000981861
8 *561:11 *585:11 0.0234846
9 *561:11 *593:25 0
10 *561:11 *595:27 0.00675089
11 *561:11 *625:9 0
12 *561:11 *632:13 0
13 *559:11 *561:11 0.160742
14 *560:11 *561:11 0.000281561
*RES
1 wbs_adr_i[26] *561:9 27.035 
2 *561:9 *561:11 1915.86 
3 *561:11 *803:wbs_adr_i[26] 18.77 
*END

*D_NET *562 0.467785
*CONN
*P wbs_adr_i[27] I
*I *803:wbs_adr_i[27] I *D memory_macro
*CAP
1 wbs_adr_i[27] 0.00150409
2 *803:wbs_adr_i[27] 4.94761e-05
3 *562:43 0.0110124
4 *562:37 0.0111061
5 *562:27 0.032047
6 *562:25 0.0320488
7 *562:19 0.012609
8 *562:13 0.0139682
9 *562:13 *578:11 0.000303749
10 *562:13 *581:11 0.00165866
11 *562:13 *601:35 0.000263098
12 *562:13 *639:9 0.00165273
13 *562:19 *584:19 8.13189e-05
14 *562:27 *584:19 0.0112998
15 *562:27 *588:35 0.132861
16 *562:27 *650:6 0.00991471
17 *562:27 *681:27 0.0114937
18 *562:27 *682:14 0.000774813
19 *562:37 *701:8 2.99798e-05
20 *562:43 *595:27 0
21 *562:43 *629:13 2.04785e-05
22 *529:28 *562:27 0.183086
*RES
1 wbs_adr_i[27] *562:13 33.2003 
2 *562:13 *562:19 45.8205 
3 *562:19 *562:25 25.7861 
4 *562:25 *562:27 1955.41 
5 *562:27 *562:37 31.5917 
6 *562:37 *562:43 45.4733 
7 *562:43 *803:wbs_adr_i[27] 8.77679 
*END

*D_NET *563 0.448737
*CONN
*P wbs_adr_i[28] I
*I *803:wbs_adr_i[28] I *D memory_macro
*CAP
1 wbs_adr_i[28] 0.000782677
2 *803:wbs_adr_i[28] 0.000199847
3 *563:11 0.0264194
4 *563:9 0.0270023
5 *563:9 *625:15 0.000708576
6 *563:11 *564:11 0.184983
7 *563:11 *568:11 0.000384904
8 *563:11 *574:11 0.000190228
9 *563:11 *585:11 0.026392
10 *563:11 *595:27 0.00933186
11 *563:11 *632:13 0
12 *560:11 *563:11 0.000345039
13 *561:11 *563:11 0.171997
*RES
1 wbs_adr_i[28] *563:9 27.1593 
2 *563:9 *563:11 2038.78 
3 *563:11 *803:wbs_adr_i[28] 19.1221 
*END

*D_NET *564 0.464346
*CONN
*P wbs_adr_i[29] I
*I *803:wbs_adr_i[29] I *D memory_macro
*CAP
1 wbs_adr_i[29] 0.000909851
2 *803:wbs_adr_i[29] 0.00021543
3 *564:11 0.025665
4 *564:9 0.0263594
5 *564:11 *566:11 0.190573
6 *564:11 *574:11 0.000683304
7 *564:11 *586:15 0.0239965
8 *564:11 *595:27 0.0105695
9 *560:11 *564:11 0.000390795
10 *563:11 *564:11 0.184983
*RES
1 wbs_adr_i[29] *564:9 26.3307 
2 *564:9 *564:11 2100.72 
3 *564:11 *803:wbs_adr_i[29] 19.4743 
*END

*D_NET *565 0.0523311
*CONN
*P wbs_adr_i[2] I
*I *803:wbs_adr_i[2] I *D memory_macro
*CAP
1 wbs_adr_i[2] 0.00324069
2 *803:wbs_adr_i[2] 0.000411719
3 *565:25 0.000557726
4 *565:19 0.0096508
5 *565:17 0.00950479
6 *565:15 0.00324069
7 *803:wbs_adr_i[2] *601:35 0.00183661
8 *803:wbs_adr_i[2] *630:13 0.00101869
9 *803:wbs_adr_i[2] *639:9 0.000350541
10 *565:15 *803:wbs_dat_i[0] 7.47278e-05
11 *565:15 *576:15 6.10602e-05
12 *565:15 *587:11 0.00219449
13 *565:15 *598:15 0.00222138
14 *565:15 *601:29 0.00116769
15 *565:15 *641:11 0
16 *565:19 *568:11 0
17 *565:19 *578:11 0.00626923
18 *565:19 *581:11 0.000702824
19 *565:19 *583:11 0.00176102
20 *565:19 *601:35 0.00228785
21 *565:19 *630:21 0.00195279
22 *565:19 *633:17 0.000344974
23 *565:19 *640:11 0.00196727
24 *541:35 *565:15 0.000695747
25 *556:11 *565:19 0.000817777
*RES
1 wbs_adr_i[2] *565:15 44.1858 
2 *565:15 *565:17 15 
3 *565:17 *565:19 292.672 
4 *565:19 *565:25 31.9057 
5 *565:25 *803:wbs_adr_i[2] 35.9836 
*END

*D_NET *566 0.48264
*CONN
*P wbs_adr_i[30] I
*I *803:wbs_adr_i[30] I *D memory_macro
*CAP
1 wbs_adr_i[30] 0.000924371
2 *803:wbs_adr_i[30] 0.000234704
3 *566:11 0.026222
4 *566:9 0.0269117
5 *566:9 *596:11 0.000115009
6 *566:11 *567:11 0.196244
7 *566:11 *574:11 0.000935436
8 *566:11 *586:15 0.0273035
9 *566:11 *595:27 0.0122026
10 *566:11 *599:21 0.000531529
11 *560:11 *566:11 0.000441767
12 *564:11 *566:11 0.190573
*RES
1 wbs_adr_i[30] *566:9 26.455 
2 *566:9 *566:11 2161.7 
3 *566:11 *803:wbs_adr_i[30] 19.8264 
*END

*D_NET *567 0.416433
*CONN
*P wbs_adr_i[31] I
*I *803:wbs_adr_i[31] I *D memory_macro
*CAP
1 wbs_adr_i[31] 0.000881987
2 *803:wbs_adr_i[31] 0.000240019
3 *567:11 0.0579889
4 *567:9 0.0586308
5 *567:9 *589:23 6.15648e-05
6 *567:9 *596:11 0.000115009
7 *567:11 *803:wbs_dat_i[26] 0.000271493
8 *567:11 *803:wbs_dat_i[28] 0.000220471
9 *567:11 *574:11 0.0423604
10 *567:11 *595:27 0.00334185
11 *567:11 *599:21 0.00138619
12 *560:11 *567:11 0.0546904
13 *566:11 *567:11 0.196244
*RES
1 wbs_adr_i[31] *567:9 26.1029 
2 *567:9 *567:11 2223.64 
3 *567:11 *803:wbs_adr_i[31] 20.1786 
*END

*D_NET *568 0.097156
*CONN
*P wbs_adr_i[3] I
*I *803:wbs_adr_i[3] I *D memory_macro
*CAP
1 wbs_adr_i[3] 0.00049759
2 *803:wbs_adr_i[3] 0.00040295
3 *568:11 0.00874281
4 *568:9 0.00883745
5 *568:11 *569:11 0.00265287
6 *568:11 *573:11 0.00098074
7 *568:11 *574:11 0.0329407
8 *568:11 *586:13 0.000107106
9 *568:11 *586:15 0.00172786
10 *568:11 *587:11 0.00476137
11 *568:11 *598:19 0.000779188
12 *568:11 *630:21 0.0229385
13 *568:11 *633:17 0.00913591
14 *541:27 *568:9 9.56652e-05
15 *541:35 *568:11 0
16 *559:11 *568:11 0.00014448
17 *560:11 *568:11 0.00104402
18 *561:11 *568:11 0.000981861
19 *563:11 *568:11 0.000384904
20 *565:19 *568:11 0
*RES
1 wbs_adr_i[3] *568:9 25.15 
2 *568:9 *568:11 477.05 
3 *568:11 *803:wbs_adr_i[3] 20.1786 
*END

*D_NET *569 0.107916
*CONN
*P wbs_adr_i[4] I
*I *803:wbs_adr_i[4] I *D memory_macro
*CAP
1 wbs_adr_i[4] 0.000494484
2 *803:wbs_adr_i[4] 0.000482796
3 *569:11 0.0133893
4 *569:9 0.013401
5 *803:wbs_adr_i[4] *593:21 5.97215e-05
6 *569:11 *803:wbs_sel_i[2] 0.000964963
7 *569:11 *570:19 0.0222651
8 *569:11 *573:11 0.0444498
9 *569:11 *579:11 0
10 *569:11 *587:11 0.000451114
11 *569:11 *588:11 0
12 *569:11 *598:19 0.00594914
13 *569:11 *635:33 0
14 *541:39 *569:9 6.8113e-05
15 *554:11 *569:11 0.000928229
16 *560:11 *569:11 0.00235964
17 *568:11 *569:11 0.00265287
*RES
1 wbs_adr_i[4] *569:9 24.57 
2 *569:9 *569:11 558.996 
3 *569:11 *803:wbs_adr_i[4] 21.235 
*END

*D_NET *570 0.112118
*CONN
*P wbs_adr_i[5] I
*I *803:wbs_adr_i[5] I *D memory_macro
*CAP
1 wbs_adr_i[5] 7.70104e-05
2 *803:wbs_adr_i[5] 0.000534188
3 *570:19 0.0100398
4 *570:17 0.0100205
5 *570:11 0.00482368
6 *570:9 0.00438575
7 *570:11 wbs_dat_o[17] 0.000115009
8 *570:11 wbs_dat_o[20] 0.000225164
9 *570:11 wbs_dat_o[7] 0.000610872
10 *570:11 *572:13 0.00165876
11 *570:11 *606:11 0.021518
12 *570:11 *607:15 0.0199521
13 *570:11 *633:25 0.0041088
14 *570:11 *634:27 0.00221651
15 *570:11 *636:33 0.000107392
16 *570:11 *644:11 0.000263208
17 *570:17 *635:29 0
18 *570:19 *803:wbs_sel_i[2] 0.000891584
19 *570:19 *573:11 0.00414979
20 *570:19 *580:11 0.000144651
21 *570:19 *588:11 0.000879109
22 *570:19 *589:23 0
23 *570:19 *590:17 0
24 *570:19 *593:21 0.00208771
25 *570:19 *642:25 0.000928216
26 *555:15 *570:11 0.000115009
27 *569:11 *570:19 0.0222651
*RES
1 wbs_adr_i[5] *570:9 16.3464 
2 *570:9 *570:11 297.913 
3 *570:11 *570:17 37.54 
4 *570:17 *570:19 323.164 
5 *570:19 *803:wbs_adr_i[5] 21.5871 
*END

*D_NET *571 0.14928
*CONN
*P wbs_adr_i[6] I
*I *803:wbs_adr_i[6] I *D memory_macro
*CAP
1 wbs_adr_i[6] 0.000105472
2 *803:wbs_adr_i[6] 0.00618089
3 *571:19 0.0477614
4 *571:9 0.0481937
5 *571:7 0.0067186
6 *803:wbs_adr_i[6] *581:11 5.45304e-05
7 *803:wbs_adr_i[6] *639:9 4.93791e-05
8 *571:9 wbs_dat_o[10] 5.10545e-05
9 *571:9 wbs_dat_o[13] 5.10545e-05
10 *571:9 wbs_dat_o[15] 0.00014572
11 *571:9 wbs_dat_o[17] 0.000291172
12 *571:9 wbs_dat_o[7] 0.00505885
13 *571:9 *572:13 0.00814691
14 *571:9 *602:11 0.000914173
15 *571:9 *605:11 0.00119189
16 *571:9 *607:15 0.00273265
17 *571:9 *633:25 0.00315487
18 *571:9 *637:37 0.0149006
19 *571:9 *641:11 0.000581308
20 *571:9 *644:11 0.00250003
21 *545:13 *571:9 0.00014572
22 *546:13 *571:9 5.10545e-05
23 *548:17 *571:9 5.10636e-05
24 *550:13 *571:9 5.10545e-05
25 *551:13 *571:9 5.10545e-05
26 *552:13 *571:9 0.00014572
*RES
1 wbs_adr_i[6] *571:7 9.97821 
2 *571:7 *571:9 42.2595 
3 *571:9 *571:19 38.7157 
4 *571:19 *803:wbs_adr_i[6] 35.2224 
*END

*D_NET *572 0.175464
*CONN
*P wbs_adr_i[7] I
*I *803:wbs_adr_i[7] I *D memory_macro
*CAP
1 wbs_adr_i[7] 0.000150601
2 *803:wbs_adr_i[7] 0.00809527
3 *572:37 0.0385904
4 *572:29 0.0334639
5 *572:25 0.00422412
6 *572:13 0.00753492
7 *572:9 0.00643016
8 *803:wbs_adr_i[7] *578:11 0.000113421
9 *803:wbs_adr_i[7] *581:11 0.000575142
10 *803:wbs_adr_i[7] *639:9 0.000569223
11 *572:13 wbs_dat_o[10] 4.62763e-05
12 *572:13 wbs_dat_o[13] 4.62763e-05
13 *572:13 wbs_dat_o[15] 0.000139791
14 *572:13 wbs_dat_o[17] 0.000285243
15 *572:13 wbs_dat_o[7] 0.00502984
16 *572:13 *606:11 0.00235093
17 *572:13 *610:9 0.0133624
18 *572:13 *633:25 0.000609805
19 *572:13 *634:27 0.00238406
20 *572:13 *636:33 0.000272589
21 *572:13 *637:37 0.000167546
22 *572:13 *641:11 0.00772818
23 *572:25 *616:21 4.62843e-05
24 *572:25 *639:9 4.93993e-05
25 *572:29 *615:17 0.0110449
26 *572:29 *638:17 0.00294026
27 *572:29 *641:35 0.00297641
28 *572:29 *643:35 0.00208476
29 *572:37 *582:31 0.010195
30 *572:37 *605:43 0.000472315
31 *572:37 *607:29 0
32 *544:11 *572:13 0.00308119
33 *545:13 *572:13 0.000139791
34 *546:13 *572:13 4.62763e-05
35 *548:17 *572:13 4.62843e-05
36 *550:13 *572:13 4.62763e-05
37 *551:13 *572:13 4.62763e-05
38 *552:13 *572:13 0.000139791
39 *553:17 *572:25 0.00013279
40 *570:11 *572:13 0.00165876
41 *571:9 *572:13 0.00814691
*RES
1 wbs_adr_i[7] *572:9 10.5789 
2 *572:9 *572:13 48.2416 
3 *572:13 *572:25 37.7387 
4 *572:25 *572:29 29.1792 
5 *572:29 *572:37 32.0982 
6 *572:37 *803:wbs_adr_i[7] 41.879 
*END

*D_NET *573 0.164362
*CONN
*P wbs_adr_i[8] I
*I *803:wbs_adr_i[8] I *D memory_macro
*CAP
1 wbs_adr_i[8] 0.000603508
2 *803:wbs_adr_i[8] 0.000483419
3 *573:11 0.0146351
4 *573:9 0.0147552
5 *573:11 *803:wbs_sel_i[2] 0.000844308
6 *573:11 *574:11 0.0720203
7 *573:11 *590:17 0
8 *573:11 *598:19 0.00481199
9 *573:11 *604:27 0.000826994
10 *554:11 *573:11 0.000191477
11 *560:11 *573:11 0.00560903
12 *568:11 *573:11 0.00098074
13 *569:11 *573:11 0.0444498
14 *570:19 *573:11 0.00414979
*RES
1 wbs_adr_i[8] *573:9 24.9221 
2 *573:9 *573:11 805.786 
3 *573:11 *803:wbs_adr_i[8] 20.8829 
*END

*D_NET *574 0.192482
*CONN
*P wbs_adr_i[9] I
*I *803:wbs_adr_i[9] I *D memory_macro
*CAP
1 wbs_adr_i[9] 0.00072045
2 *803:wbs_adr_i[9] 0.00045198
3 *574:11 0.0123446
4 *574:9 0.012613
5 *574:11 *586:13 0.000292165
6 *574:11 *586:15 0.00149662
7 *574:11 *587:11 0.00346539
8 *574:11 *590:17 0
9 *574:11 *598:19 0.000160838
10 *560:11 *574:11 0.0118069
11 *563:11 *574:11 0.000190228
12 *564:11 *574:11 0.000683304
13 *566:11 *574:11 0.000935436
14 *567:11 *574:11 0.0423604
15 *568:11 *574:11 0.0329407
16 *573:11 *574:11 0.0720203
*RES
1 wbs_adr_i[9] *574:9 25.7507 
2 *574:9 *574:11 866.769 
3 *574:11 *803:wbs_adr_i[9] 20.5307 
*END

*D_NET *575 0.031378
*CONN
*P wbs_cyc_i I
*I *803:wbs_cyc_i I *D memory_macro
*CAP
1 wbs_cyc_i 0.000615116
2 *803:wbs_cyc_i 0.00447125
3 *575:9 0.00508636
4 *803:wbs_cyc_i *803:wbs_we_i 0.00143223
5 *803:wbs_cyc_i *601:33 0
6 *540:11 *803:wbs_cyc_i 0.00473903
7 *540:23 *803:wbs_cyc_i 0.000375111
8 *541:45 *803:wbs_cyc_i 2.6427e-05
9 *543:17 *803:wbs_cyc_i 0.0146324
*RES
1 wbs_cyc_i *575:9 21.8475 
2 *575:9 *803:wbs_cyc_i 40.9816 
*END

*D_NET *576 0.0480033
*CONN
*P wbs_dat_i[0] I
*I *803:wbs_dat_i[0] I *D memory_macro
*CAP
1 wbs_dat_i[0] 0.00359411
2 *803:wbs_dat_i[0] 0.00398798
3 *576:15 0.00758209
4 *803:wbs_dat_i[0] *587:11 0.000764062
5 *803:wbs_dat_i[0] *598:19 0.00348945
6 *803:wbs_dat_i[0] *601:29 0.000824442
7 *803:wbs_dat_i[0] *604:11 0.00373169
8 *803:wbs_dat_i[0] *635:33 0.000154527
9 *803:wbs_dat_i[0] *642:25 0.00357106
10 *576:15 wbs_dat_o[5] 0
11 *576:15 *603:27 9.76601e-05
12 *576:15 *619:29 1.72853e-05
13 *576:15 *633:25 0.000107237
14 *576:15 *641:11 0.00854326
15 *576:15 *644:11 0.000273364
16 *576:15 *645:13 0.0109651
17 *542:9 *576:15 0.000164216
18 *565:15 *803:wbs_dat_i[0] 7.47278e-05
19 *565:15 *576:15 6.10602e-05
*RES
1 wbs_dat_i[0] *576:15 47.074 
2 *576:15 *803:wbs_dat_i[0] 46.5444 
*END

*D_NET *577 0.213008
*CONN
*P wbs_dat_i[10] I
*I *803:wbs_dat_i[10] I *D memory_macro
*CAP
1 wbs_dat_i[10] 0.000374737
2 *803:wbs_dat_i[10] 0.00765723
3 *577:29 0.0611611
4 *577:21 0.0537502
5 *577:11 0.00317123
6 *577:9 0.00329969
7 *803:wbs_dat_i[10] *578:11 0.000876031
8 *803:wbs_dat_i[10] *581:11 0.00285195
9 *803:wbs_dat_i[10] *593:25 0.00101139
10 *803:wbs_dat_i[10] *622:17 0.00474503
11 *803:wbs_dat_i[10] *625:9 0.000884706
12 *577:11 *582:11 0.00353687
13 *577:11 *610:9 0.00207309
14 *577:11 *613:9 0.000448156
15 *577:11 *634:27 0.0080343
16 *577:11 *636:33 0.000286277
17 *577:11 *643:11 0.000785811
18 *577:21 *604:11 0.000613074
19 *577:21 *611:35 0.000619003
20 *577:29 wbs_dat_o[17] 0.000741303
21 *577:29 *579:29 0.0510346
22 *803:wbs_adr_i[10] *803:wbs_dat_i[10] 5.45304e-05
23 *544:11 *577:11 0.0022339
24 *552:17 *577:29 0.00276392
*RES
1 wbs_dat_i[10] *577:9 18.2314 
2 *577:9 *577:11 131.163 
3 *577:11 *577:21 34.2111 
4 *577:21 *577:29 38.6305 
5 *577:29 *803:wbs_dat_i[10] 45.9608 
*END

*D_NET *578 0.217614
*CONN
*P wbs_dat_i[11] I
*I *803:wbs_dat_i[11] I *D memory_macro
*CAP
1 wbs_dat_i[11] 0.00105082
2 *803:wbs_dat_i[11] 0.000143497
3 *578:11 0.0131924
4 *578:9 0.0140997
5 *578:9 wbs_dat_o[11] 0
6 *578:9 *607:15 0.000115009
7 *578:9 *641:27 0
8 *578:11 wbs_dat_o[9] 0.000160413
9 *578:11 *581:11 0.00238394
10 *578:11 *593:25 0.0536206
11 *578:11 *601:35 0.0314739
12 *578:11 *605:43 0.000233614
13 *578:11 *625:9 0.00195436
14 *578:11 *633:9 0.00138082
15 *578:11 *635:15 0.0027343
16 *578:11 *639:9 0.0109441
17 *803:wbs_adr_i[7] *578:11 0.000113421
18 *803:wbs_dat_i[10] *578:11 0.000876031
19 *556:11 *578:11 0.0765646
20 *562:13 *578:11 0.000303749
21 *565:19 *578:11 0.00626923
*RES
1 wbs_dat_i[11] *578:9 29.2721 
2 *578:9 *578:11 1010.65 
3 *578:11 *803:wbs_dat_i[11] 17.0093 
*END

*D_NET *579 0.213254
*CONN
*P wbs_dat_i[12] I
*I *803:wbs_dat_i[12] I *D memory_macro
*CAP
1 wbs_dat_i[12] 0.000640865
2 *803:wbs_dat_i[12] 0.000161244
3 *579:35 0.00796693
4 *579:29 0.0606687
5 *579:21 0.053153
6 *579:11 0.00441914
7 *579:9 0.00477002
8 *579:9 *607:15 0.000115009
9 *579:11 *580:11 0.00152397
10 *579:11 *584:13 0.000180268
11 *579:11 *635:33 0.0125237
12 *579:11 *642:25 0.000177338
13 *579:21 *585:11 0.000608867
14 *579:21 *586:13 0.000614796
15 *579:21 *633:23 0.00024072
16 *579:35 *581:11 0.00815768
17 *579:35 *593:25 0.00144012
18 *579:35 *611:17 0.000385829
19 *579:35 *611:29 0
20 *579:35 *622:17 0.00384822
21 *546:31 *579:35 0.00062247
22 *569:11 *579:11 0
23 *577:29 *579:29 0.0510346
*RES
1 wbs_dat_i[12] *579:9 22.9336 
2 *579:9 *579:11 136.88 
3 *579:11 *579:21 35.6197 
4 *579:21 *579:29 40.1024 
5 *579:29 *579:35 42.4307 
6 *579:35 *803:wbs_dat_i[12] 10.1854 
*END

*D_NET *580 0.200167
*CONN
*P wbs_dat_i[13] I
*I *803:wbs_dat_i[13] I *D memory_macro
*CAP
1 wbs_dat_i[13] 0.00066982
2 *803:wbs_dat_i[13] 0.000533994
3 *580:11 0.0321068
4 *580:9 0.0322427
5 *580:11 *803:wbs_dat_i[5] 2.98064e-05
6 *580:11 *803:wbs_sel_i[2] 0.00240013
7 *580:11 *582:21 0.000351651
8 *580:11 *584:13 0.000931713
9 *580:11 *588:11 0.00162221
10 *580:11 *588:21 0.000335033
11 *580:11 *589:23 0.000275917
12 *580:11 *590:17 0.0103527
13 *580:11 *593:21 0.0120825
14 *580:11 *595:17 7.51535e-06
15 *580:11 *597:17 4.53073e-05
16 *580:11 *602:25 3.57684e-05
17 *580:11 *602:37 5.56761e-05
18 *580:11 *604:11 0.00579438
19 *580:11 *604:27 0.00239258
20 *580:11 *605:21 0.000330695
21 *580:11 *627:9 0.0193364
22 *580:11 *629:33 0.000222302
23 *580:11 *638:9 0.000336677
24 *580:11 *642:25 0.0197562
25 *544:21 *580:11 0.000351651
26 *547:25 *580:11 0.000354428
27 *549:35 *580:11 0.00780074
28 *553:17 *580:11 0.00180425
29 *555:25 *580:11 0.0211066
30 *560:11 *580:11 0.0248323
31 *570:19 *580:11 0.000144651
32 *579:11 *580:11 0.00152397
*RES
1 wbs_dat_i[13] *580:9 15.9854 
2 *580:9 *580:11 204.505 
3 *580:11 *803:wbs_dat_i[13] 15.8196 
*END

*D_NET *581 0.282938
*CONN
*P wbs_dat_i[14] I
*I *803:wbs_dat_i[14] I *D memory_macro
*CAP
1 wbs_dat_i[14] 0.000929983
2 *803:wbs_dat_i[14] 0.000199763
3 *581:11 0.0245853
4 *581:9 0.0253155
5 *581:9 *608:7 0
6 *581:11 *803:wbs_dat_i[8] 5.45304e-05
7 *581:11 *583:11 0.113227
8 *581:11 *593:25 0.00187854
9 *581:11 *605:43 0.00110732
10 *581:11 *607:47 0.000101859
11 *581:11 *609:11 2.98064e-05
12 *581:11 *611:17 0.00139165
13 *581:11 *612:15 0.000986985
14 *581:11 *622:17 0.00648191
15 *581:11 *635:15 0.0132223
16 *581:11 *636:15 0.000101859
17 *581:11 *636:31 5.10636e-05
18 *581:11 *637:15 0.000101859
19 *581:11 *639:9 0.0335146
20 *581:11 *640:11 0.00115882
21 *581:11 *643:25 5.10636e-05
22 *581:11 *643:35 0.000101859
23 *803:wbs_adr_i[11] *581:11 0.000262634
24 *803:wbs_adr_i[13] *581:11 5.56761e-05
25 *803:wbs_adr_i[14] *581:11 5.56761e-05
26 *803:wbs_adr_i[6] *581:11 5.45304e-05
27 *803:wbs_adr_i[7] *581:11 0.000575142
28 *803:wbs_dat_i[10] *581:11 0.00285195
29 *554:11 *581:11 0.000424598
30 *556:11 *581:11 0.0192667
31 *557:11 *581:11 0.0218948
32 *562:13 *581:11 0.00165866
33 *565:19 *581:11 0.000702824
34 *578:11 *581:11 0.00238394
35 *579:35 *581:11 0.00815768
*RES
1 wbs_dat_i[14] *581:9 20.4389 
2 *581:9 *581:11 215.667 
3 *581:11 *803:wbs_dat_i[14] 10.8896 
*END

*D_NET *582 0.234669
*CONN
*P wbs_dat_i[15] I
*I *803:wbs_dat_i[15] I *D memory_macro
*CAP
1 wbs_dat_i[15] 0.000433362
2 *803:wbs_dat_i[15] 0.000133773
3 *582:31 0.0930536
4 *582:25 0.101589
5 *582:21 0.00897705
6 *582:11 0.00214331
7 *582:9 0.00226831
8 *803:wbs_dat_i[15] *583:11 2.03202e-05
9 *803:wbs_dat_i[15] *622:17 4.93791e-05
10 *582:9 *607:15 0.000115009
11 *582:11 *610:9 0.00152674
12 *582:11 *613:9 0.00301686
13 *582:11 *617:9 0.0040539
14 *582:21 *604:11 0.000662133
15 *582:21 *635:29 0.00011492
16 *582:31 *614:15 0
17 *544:11 *582:11 0.00228712
18 *553:17 *582:25 0
19 *555:25 *582:21 0.000117341
20 *556:9 *582:21 2.35206e-05
21 *572:37 *582:31 0.010195
22 *577:11 *582:11 0.00353687
23 *580:11 *582:21 0.000351651
*RES
1 wbs_dat_i[15] *582:9 19.06 
2 *582:9 *582:11 103.054 
3 *582:11 *582:21 35.3534 
4 *582:21 *582:25 26.0798 
5 *582:25 *582:31 49.5243 
6 *582:31 *803:wbs_dat_i[15] 17.58 
*END

*D_NET *583 0.345585
*CONN
*P wbs_dat_i[16] I
*I *803:wbs_dat_i[16] I *D memory_macro
*CAP
1 wbs_dat_i[16] 0.00092905
2 *803:wbs_dat_i[16] 0.000250833
3 *583:11 0.0237702
4 *583:9 0.0244484
5 *583:9 *630:19 2.81374e-05
6 *583:11 *585:11 0.125062
7 *583:11 *587:11 0.000846351
8 *583:11 *614:11 0.000735144
9 *583:11 *622:17 0.00377744
10 *583:11 *625:9 0.000795929
11 *803:wbs_adr_i[16] *583:11 2.03202e-05
12 *803:wbs_dat_i[15] *583:11 2.03202e-05
13 *554:11 *583:11 0.000761202
14 *556:11 *583:11 0.00151102
15 *557:11 *583:11 0.0017081
16 *558:11 *583:11 0.0215238
17 *559:11 *583:11 0.0244088
18 *565:19 *583:11 0.00176102
19 *581:11 *583:11 0.113227
*RES
1 wbs_dat_i[16] *583:9 20.4389 
2 *583:9 *583:11 238.25 
3 *583:11 *803:wbs_dat_i[16] 11.5939 
*END

*D_NET *584 0.383782
*CONN
*P wbs_dat_i[17] I
*I *803:wbs_dat_i[17] I *D memory_macro
*CAP
1 wbs_dat_i[17] 0.00087667
2 *803:wbs_dat_i[17] 0.000381397
3 *584:23 0.0116485
4 *584:19 0.0494731
5 *584:17 0.0498521
6 *584:13 0.0125228
7 *803:wbs_dat_i[17] *585:11 0.000319301
8 *803:wbs_dat_i[17] *593:25 0.00024191
9 *803:wbs_dat_i[17] *622:17 0.00108958
10 *803:wbs_dat_i[17] *625:9 0.000202349
11 *584:13 *604:11 0.00050332
12 *584:13 *607:15 0.000115009
13 *584:13 *635:33 0.000180268
14 *584:17 wbs_dat_o[16] 0.000343339
15 *584:19 *803:cpu_mem_wdata[12] 0.000311671
16 *584:19 *803:cpu_mem_wdata[22] 0.000466068
17 *584:19 *803:cpu_mem_wdata[3] 0.000200936
18 *584:19 *803:cpu_mem_wdata[9] 0.00613787
19 *584:19 *588:27 2.99837e-05
20 *584:19 *588:35 0.0243377
21 *584:19 *681:27 0.0577628
22 *584:19 *682:14 0.00033531
23 *584:19 *730:26 4.93791e-05
24 *584:19 *736:24 0.000194968
25 *584:19 *737:18 0.000677491
26 *584:19 *737:26 6.86192e-05
27 *584:19 *738:21 8.69777e-05
28 *584:19 *740:8 4.93791e-05
29 *584:19 *767:25 3.09609e-05
30 *584:19 *768:31 0.000633919
31 *584:19 *770:27 0.000799561
32 *584:19 *796:17 0.000752957
33 *529:28 *584:19 0.0215952
34 *550:19 *584:19 0.000267338
35 *551:17 *584:17 0
36 *551:19 *584:19 0.12875
37 *562:19 *584:19 8.13189e-05
38 *562:27 *584:19 0.0112998
39 *579:11 *584:13 0.000180268
40 *580:11 *584:13 0.000931713
*RES
1 wbs_dat_i[17] *584:13 25.4879 
2 *584:13 *584:17 46.7707 
3 *584:17 *584:19 249.241 
4 *584:19 *584:23 45.5013 
5 *584:23 *803:wbs_dat_i[17] 19.5549 
*END

*D_NET *585 0.389641
*CONN
*P wbs_dat_i[18] I
*I *803:wbs_dat_i[18] I *D memory_macro
*CAP
1 wbs_dat_i[18] 0.00092104
2 *803:wbs_dat_i[18] 0.000295411
3 *585:11 0.0261176
4 *585:9 0.0267432
5 *585:9 wbs_dat_o[18] 0
6 *585:9 *803:wbs_dat_i[1] 2.74332e-05
7 *585:9 *607:15 0.000115009
8 *585:11 *586:13 0.000434717
9 *585:11 *586:15 0.137424
10 *585:11 *587:11 8.7713e-05
11 *585:11 *598:19 0.000583944
12 *585:11 *615:15 2.98092e-05
13 *585:11 *616:11 0.000678283
14 *585:11 *622:9 0.000568163
15 *585:11 *622:17 0.00115766
16 *585:11 *633:17 0.000107106
17 *803:wbs_adr_i[17] *585:11 1.59585e-05
18 *803:wbs_adr_i[18] *585:11 0.000585383
19 *803:wbs_dat_i[17] *585:11 0.000319301
20 *555:25 *585:11 0.0178819
21 *561:11 *585:11 0.0234846
22 *563:11 *585:11 0.026392
23 *579:21 *585:11 0.000608867
24 *583:11 *585:11 0.125062
*RES
1 wbs_dat_i[18] *585:9 19.9832 
2 *585:9 *585:11 259.974 
3 *585:11 *803:wbs_dat_i[18] 12.2982 
*END

*D_NET *586 0.417268
*CONN
*P wbs_dat_i[19] I
*I *803:wbs_dat_i[19] I *D memory_macro
*CAP
1 wbs_dat_i[19] 0.00125649
2 *803:wbs_dat_i[19] 0.000346481
3 *586:15 0.0271606
4 *586:13 0.0280706
5 *586:13 *598:19 0.0014797
6 *586:13 *607:15 0.000115009
7 *586:15 *803:wbs_sel_i[2] 0.000505427
8 *586:15 *598:19 0.00379982
9 *586:15 *622:9 0
10 *586:15 *633:17 0.00172264
11 *586:15 *642:25 0.000111658
12 *803:wbs_adr_i[19] *586:15 1.96573e-05
13 *555:25 *586:15 0.022563
14 *560:11 *586:15 0.13672
15 *564:11 *586:15 0.0239965
16 *566:11 *586:15 0.0273035
17 *568:11 *586:13 0.000107106
18 *568:11 *586:15 0.00172786
19 *574:11 *586:13 0.000292165
20 *574:11 *586:15 0.00149662
21 *579:21 *586:13 0.000614796
22 *585:11 *586:13 0.000434717
23 *585:11 *586:15 0.137424
*RES
1 wbs_dat_i[19] *586:13 21.5184 
2 *586:13 *586:15 268.432 
3 *586:15 *803:wbs_dat_i[19] 13.0025 
*END

*D_NET *587 0.0789007
*CONN
*P wbs_dat_i[1] I
*I *803:wbs_dat_i[1] I *D memory_macro
*CAP
1 wbs_dat_i[1] 0.000444908
2 *803:wbs_dat_i[1] 0.00035251
3 *587:11 0.0075181
4 *587:9 0.0076105
5 *587:11 *598:19 0.0205231
6 *587:11 *619:29 0
7 *587:11 *641:11 0
8 *803:wbs_dat_i[0] *587:11 0.000764062
9 *554:11 *587:11 0.0298537
10 *565:15 *587:11 0.00219449
11 *568:11 *587:11 0.00476137
12 *569:11 *587:11 0.000451114
13 *574:11 *587:11 0.00346539
14 *583:11 *587:11 0.000846351
15 *585:9 *803:wbs_dat_i[1] 2.74332e-05
16 *585:11 *587:11 8.7713e-05
*RES
1 wbs_dat_i[1] *587:9 17.6218 
2 *587:9 *587:11 60.0768 
3 *587:11 *803:wbs_dat_i[1] 13.7068 
*END

*D_NET *588 0.310416
*CONN
*P wbs_dat_i[20] I
*I *803:wbs_dat_i[20] I *D memory_macro
*CAP
1 wbs_dat_i[20] 0.000633074
2 *803:wbs_dat_i[20] 0.00010313
3 *588:51 0.0114488
4 *588:45 0.0115054
5 *588:35 0.0418006
6 *588:33 0.0418034
7 *588:27 0.0127623
8 *588:21 0.0127461
9 *588:11 0.00432071
10 *588:9 0.00480743
11 *588:9 *637:31 0
12 *588:11 *589:11 0
13 *588:11 *590:17 0.00112949
14 *588:11 *635:33 0.00101412
15 *588:11 *643:11 0
16 *588:21 *803:wbs_sel_i[2] 0.000329105
17 *588:27 *604:21 0
18 *588:27 *607:29 0
19 *588:35 *650:6 0.00272543
20 *588:35 *681:27 0.000289738
21 *588:35 *682:14 0.000449722
22 *588:35 *786:22 0
23 *588:45 *650:6 0.000413554
24 *588:45 *723:9 8.89424e-05
25 *588:51 *595:27 1.05236e-05
26 *588:51 *622:9 4.93791e-05
27 *529:28 *588:35 0.00181794
28 *561:9 *588:21 0.000101861
29 *562:27 *588:35 0.132861
30 *569:11 *588:11 0
31 *570:19 *588:11 0.000879109
32 *580:11 *588:11 0.00162221
33 *580:11 *588:21 0.000335033
34 *584:19 *588:27 2.99837e-05
35 *584:19 *588:35 0.0243377
*RES
1 wbs_dat_i[20] *588:9 22.4571 
2 *588:9 *588:11 104.483 
3 *588:11 *588:21 32.9916 
4 *588:21 *588:27 46.2797 
5 *588:27 *588:33 26.1382 
6 *588:33 *588:35 1453.73 
7 *588:35 *588:45 32.1069 
8 *588:45 *588:51 45.6003 
9 *588:51 *803:wbs_dat_i[20] 9.48107 
*END

*D_NET *589 0.275377
*CONN
*P wbs_dat_i[21] I
*I *803:wbs_dat_i[21] I *D memory_macro
*CAP
1 wbs_dat_i[21] 0.000407279
2 *803:wbs_dat_i[21] 0.000569807
3 *589:27 0.0429035
4 *589:25 0.0423337
5 *589:23 0.000934667
6 *589:17 0.00109242
7 *589:11 0.00386947
8 *589:9 0.004119
9 *589:11 *590:17 0
10 *589:11 *611:35 0.000263663
11 *589:11 *613:9 0.0137082
12 *589:11 *635:29 0.000506147
13 *589:11 *636:33 0.000178822
14 *589:11 *638:9 0.00157562
15 *589:11 *643:11 0.00484676
16 *589:17 wbs_dat_o[29] 0
17 *589:17 *597:17 0
18 *589:23 *590:17 0.00262869
19 *589:27 *590:17 0.132726
20 *589:27 *613:9 0
21 *589:27 *617:9 0
22 *589:27 *621:9 0
23 *589:27 *627:9 0.0164644
24 *549:35 *589:27 0.00591097
25 *567:9 *589:23 6.15648e-05
26 *570:19 *589:23 0
27 *580:11 *589:23 0.000275917
28 *588:11 *589:11 0
*RES
1 wbs_dat_i[21] *589:9 19.64 
2 *589:9 *589:11 150.22 
3 *589:11 *589:17 32.61 
4 *589:17 *589:23 44.58 
5 *589:23 *589:25 15 
6 *589:25 *589:27 1449.44 
7 *589:27 *803:wbs_dat_i[21] 24.4043 
*END

*D_NET *590 0.268796
*CONN
*P wbs_dat_i[22] I
*I *803:wbs_dat_i[22] I *D memory_macro
*CAP
1 wbs_dat_i[22] 0.00241222
2 *803:wbs_dat_i[22] 0.000534162
3 *590:17 0.0513783
4 *590:15 0.0532564
5 *590:15 wbs_dat_o[20] 0.00234464
6 *590:15 *602:11 0.0014633
7 *590:15 *605:11 0.000813962
8 *590:15 *605:21 0.000412703
9 *590:17 wbs_dat_o[29] 0.000401106
10 *590:17 *591:11 0
11 *590:17 *613:9 0
12 *590:17 *621:9 0
13 *590:17 *627:9 0.00265622
14 *549:11 *590:15 0.000383679
15 *549:35 *590:17 0.00590268
16 *570:19 *590:17 0
17 *573:11 *590:17 0
18 *574:11 *590:17 0
19 *580:11 *590:17 0.0103527
20 *588:11 *590:17 0.00112949
21 *589:11 *590:17 0
22 *589:23 *590:17 0.00262869
23 *589:27 *590:17 0.132726
*RES
1 wbs_dat_i[22] *590:15 47.8512 
2 *590:15 *590:17 1643.82 
3 *590:17 *803:wbs_dat_i[22] 24.0521 
*END

*D_NET *591 0.372613
*CONN
*P wbs_dat_i[23] I
*I *803:wbs_dat_i[23] I *D memory_macro
*CAP
1 wbs_dat_i[23] 0.000258664
2 *803:wbs_dat_i[23] 0.000748628
3 *591:11 0.0230427
4 *591:9 0.0225527
5 *591:11 *606:11 0.000285962
6 *591:11 *610:9 0.0169669
7 *591:11 *621:9 0.148311
8 *591:11 *623:9 0.159644
9 *591:11 *627:9 0.000802326
10 *549:21 *591:9 0
11 *590:17 *591:11 0
*RES
1 wbs_dat_i[23] *591:9 18.4593 
2 *591:9 *591:11 1751.97 
3 *591:11 *803:wbs_dat_i[23] 29.2929 
*END

*D_NET *592 0.40153
*CONN
*P wbs_dat_i[24] I
*I *803:wbs_dat_i[24] I *D memory_macro
*CAP
1 wbs_dat_i[24] 0.000180476
2 *803:wbs_dat_i[24] 0.000708628
3 *592:11 0.0222188
4 *592:9 0.0216907
5 *592:11 *607:15 0.000237829
6 *592:11 *618:9 0.0300179
7 *592:11 *623:9 0.161099
8 *592:11 *624:9 0.165377
*RES
1 wbs_dat_i[24] *592:9 17.5271 
2 *592:9 *592:11 1812.96 
3 *592:11 *803:wbs_dat_i[24] 28.2779 
*END

*D_NET *593 0.314932
*CONN
*P wbs_dat_i[25] I
*I *803:wbs_dat_i[25] I *D memory_macro
*CAP
1 wbs_dat_i[25] 0.00223197
2 *803:wbs_dat_i[25] 9.67056e-05
3 *593:25 0.0310508
4 *593:23 0.0309541
5 *593:21 0.00327846
6 *593:15 0.00551043
7 *593:15 wbs_dat_o[20] 0.00128939
8 *593:15 wbs_dat_o[27] 0.000238861
9 *593:15 *602:11 0.00182907
10 *593:15 *625:17 0.000527347
11 *593:15 *626:9 0.00192315
12 *593:25 *605:43 0.000202349
13 *593:25 *612:15 0.000382135
14 *593:25 *614:11 0.000442232
15 *593:25 *616:11 0.00053303
16 *593:25 *622:9 0.00584072
17 *593:25 *622:17 0.0027618
18 *593:25 *622:27 0.000119224
19 *593:25 *625:9 0.0891676
20 *593:25 *635:15 0.00236837
21 *593:25 *639:9 0.0062253
22 *803:wbs_adr_i[11] *593:25 0.000101685
23 *803:wbs_adr_i[18] *593:25 0.000462264
24 *803:wbs_adr_i[4] *593:21 5.97215e-05
25 *803:wbs_dat_i[10] *593:25 0.00101139
26 *803:wbs_dat_i[17] *593:25 0.00024191
27 *555:25 *593:21 0.00253489
28 *556:11 *593:25 0.0401325
29 *557:11 *593:25 0.00288528
30 *558:11 *593:25 0.00217215
31 *559:11 *593:25 0.000826911
32 *560:11 *593:21 0.00642068
33 *561:11 *593:25 0
34 *570:19 *593:21 0.00208771
35 *578:11 *593:25 0.0536206
36 *579:35 *593:25 0.00144012
37 *580:11 *593:21 0.0120825
38 *581:11 *593:25 0.00187854
*RES
1 wbs_dat_i[25] *593:15 42.4445 
2 *593:15 *593:21 36.0704 
3 *593:21 *593:23 15 
4 *593:23 *593:25 1706.24 
5 *593:25 *803:wbs_dat_i[25] 16.6571 
*END

*D_NET *594 0.42202
*CONN
*P wbs_dat_i[26] I
*I *803:wbs_dat_i[26] I *D memory_macro
*CAP
1 wbs_dat_i[26] 0.000215476
2 *803:wbs_dat_i[26] 0.00146274
3 *594:17 0.00180318
4 *594:11 0.0240631
5 *594:9 0.0239381
6 *594:11 wbs_dat_o[20] 0.00158232
7 *594:11 wbs_dat_o[31] 0.000413727
8 *594:11 *596:11 0.171705
9 *594:11 *602:11 4.9908e-05
10 *594:11 *618:9 0.00013749
11 *594:11 *620:9 0.0287662
12 *594:11 *624:9 0.165043
13 *594:11 *625:17 0.000834882
14 *594:11 *626:9 0.00173375
15 *567:11 *803:wbs_dat_i[26] 0.000271493
*RES
1 wbs_dat_i[26] *594:9 17.2993 
2 *594:9 *594:11 1910.62 
3 *594:11 *594:17 37.1879 
4 *594:17 *803:wbs_dat_i[26] 47.335 
*END

*D_NET *595 0.346827
*CONN
*P wbs_dat_i[27] I
*I *803:wbs_dat_i[27] I *D memory_macro
*CAP
1 wbs_dat_i[27] 0.000839907
2 *803:wbs_dat_i[27] 0.000263728
3 *595:27 0.0239405
4 *595:25 0.110559
5 *595:17 0.0877221
6 *595:17 *638:9 4.62843e-05
7 *595:27 *622:9 0
8 *595:27 *627:9 0
9 *595:27 *629:13 0
10 *555:25 *595:25 0.0358092
11 *558:11 *595:27 0.00242786
12 *559:11 *595:27 0.00396832
13 *560:11 *595:27 0.0390357
14 *561:11 *595:27 0.00675089
15 *562:43 *595:27 0
16 *563:11 *595:27 0.00933186
17 *564:11 *595:27 0.0105695
18 *566:11 *595:27 0.0122026
19 *567:11 *595:27 0.00334185
20 *580:11 *595:17 7.51535e-06
21 *588:51 *595:27 1.05236e-05
*RES
1 wbs_dat_i[27] *595:17 22.3724 
2 *595:17 *595:25 41.1399 
3 *595:25 *595:27 105.629 
4 *595:27 *803:wbs_dat_i[27] 13.0025 
*END

*D_NET *596 0.448878
*CONN
*P wbs_dat_i[28] I
*I *803:wbs_dat_i[28] I *D memory_macro
*CAP
1 wbs_dat_i[28] 0.000136833
2 *803:wbs_dat_i[28] 0.00128258
3 *596:17 0.0016271
4 *596:11 0.0262003
5 *596:9 0.0259926
6 *596:11 wbs_dat_o[31] 0.000115009
7 *596:11 *597:17 0.000115009
8 *596:11 *602:11 0.000174762
9 *596:11 *626:9 0.0350321
10 *596:11 *628:13 0.186046
11 *566:9 *596:11 0.000115009
12 *567:9 *596:11 0.000115009
13 *567:11 *803:wbs_dat_i[28] 0.000220471
14 *594:11 *596:11 0.171705
*RES
1 wbs_dat_i[28] *596:9 16.3464 
2 *596:9 *596:11 2038.78 
3 *596:11 *596:17 37.54 
4 *596:17 *803:wbs_dat_i[28] 43.5236 
*END

*D_NET *597 0.399079
*CONN
*P wbs_dat_i[29] I
*I *803:wbs_dat_i[29] I *D memory_macro
*CAP
1 wbs_dat_i[29] 0.00220241
2 *803:wbs_dat_i[29] 0.00112727
3 *597:27 0.0343921
4 *597:25 0.116719
5 *597:17 0.0856563
6 *803:wbs_dat_i[29] *629:13 0.000881982
7 *803:wbs_dat_i[29] *632:13 0.000787743
8 *597:17 *627:9 5.22967e-05
9 *597:25 *600:27 0.00527697
10 *597:25 *602:37 0.00198064
11 *597:25 *603:27 0.00502824
12 *597:27 *629:13 0.0884605
13 *547:27 *597:25 0.0169119
14 *548:19 *597:25 0.0187825
15 *553:19 *597:25 0.020659
16 *553:19 *597:27 0
17 *580:11 *597:17 4.53073e-05
18 *589:17 *597:17 0
19 *596:11 *597:17 0.000115009
*RES
1 wbs_dat_i[29] *597:17 27.1045 
2 *597:17 *597:25 35.2149 
3 *597:25 *597:27 168.355 
4 *597:27 *803:wbs_dat_i[29] 28.6613 
*END

*D_NET *598 0.100041
*CONN
*P wbs_dat_i[2] I
*I *803:wbs_dat_i[2] I *D memory_macro
*CAP
1 wbs_dat_i[2] 0.00285948
2 *803:wbs_dat_i[2] 0.000439508
3 *598:19 0.00740953
4 *598:17 0.00697002
5 *598:15 0.00285948
6 *803:wbs_dat_i[2] *643:25 0.000117757
7 *598:15 *601:29 0.00121959
8 *598:15 *604:11 0.00111247
9 *598:15 *641:11 0.000350685
10 *598:15 *642:17 0.00704454
11 *598:15 *643:11 0.000428928
12 *598:19 *642:25 0.0242275
13 *803:wbs_dat_i[0] *598:19 0.00348945
14 *541:27 *598:15 4.93791e-05
15 *555:25 *598:19 0.00115314
16 *565:15 *598:15 0.00222138
17 *568:11 *598:19 0.000779188
18 *569:11 *598:19 0.00594914
19 *573:11 *598:19 0.00481199
20 *574:11 *598:19 0.000160838
21 *585:11 *598:19 0.000583944
22 *586:13 *598:19 0.0014797
23 *586:15 *598:19 0.00379982
24 *587:11 *598:19 0.0205231
*RES
1 wbs_dat_i[2] *598:15 43.0259 
2 *598:15 *598:17 8 
3 *598:17 *598:19 57.4149 
4 *598:19 *803:wbs_dat_i[2] 14.4111 
*END

*D_NET *599 0.442823
*CONN
*P wbs_dat_i[30] I
*I *803:wbs_dat_i[30] I *D memory_macro
*CAP
1 wbs_dat_i[30] 0.000199593
2 *803:wbs_dat_i[30] 0.00021543
3 *599:21 0.00125667
4 *599:17 0.00154481
5 *599:11 0.0264287
6 *599:9 0.0261247
7 *599:9 *628:13 0.000115009
8 *599:11 *602:11 0.000296709
9 *599:11 *620:23 0.000451114
10 *599:11 *626:9 0.000290423
11 *599:11 *628:13 0.187582
12 *599:11 *631:9 0.1964
13 *566:11 *599:21 0.000531529
14 *567:11 *599:21 0.00138619
*RES
1 wbs_dat_i[30] *599:9 17.2993 
2 *599:9 *599:11 2150.27 
3 *599:11 *599:17 40.7093 
4 *599:17 *599:21 47.5421 
5 *599:21 *803:wbs_dat_i[30] 4.47429 
*END

*D_NET *600 0.295962
*CONN
*P wbs_dat_i[31] I
*I *803:wbs_dat_i[31] I *D memory_macro
*CAP
1 wbs_dat_i[31] 0.0525466
2 *803:wbs_dat_i[31] 0.00127918
3 *600:27 0.0753314
4 *600:25 0.0761063
5 *600:21 0.0546008
6 *600:21 *602:25 0
7 *600:21 *611:29 0.0132546
8 *600:21 *618:9 0.000139791
9 *600:21 *620:23 2.00313e-05
10 *600:21 *626:9 0.00014572
11 *600:21 *636:31 7.15785e-05
12 *544:59 *600:21 0.00793781
13 *548:19 *600:27 0.00220417
14 *553:19 *600:27 0.00704677
15 *597:25 *600:27 0.00527697
*RES
1 wbs_dat_i[31] *600:21 47.6264 
2 *600:21 *600:25 14.6565 
3 *600:25 *600:27 263.838 
4 *600:27 *803:wbs_dat_i[31] 27.3099 
*END

*D_NET *601 0.089705
*CONN
*P wbs_dat_i[3] I
*I *803:wbs_dat_i[3] I *D memory_macro
*CAP
1 wbs_dat_i[3] 0.00413178
2 *803:wbs_dat_i[3] 0.000125109
3 *601:35 0.00963987
4 *601:33 0.00999441
5 *601:29 0.00461143
6 *601:29 *604:11 0.000595339
7 *601:29 *619:29 0.00064795
8 *601:29 *642:17 9.24631e-05
9 *601:35 wbs_dat_o[9] 0.000554465
10 *601:35 *630:13 0.0048535
11 *601:35 *633:9 0.00829877
12 *601:35 *639:9 0.00636858
13 *803:wbs_adr_i[2] *601:35 0.00183661
14 *803:wbs_cyc_i *601:33 0
15 *803:wbs_dat_i[0] *601:29 0.000824442
16 *541:27 *601:29 0
17 *543:17 *601:35 0.000718205
18 *562:13 *601:35 0.000263098
19 *565:15 *601:29 0.00116769
20 *565:19 *601:35 0.00228785
21 *578:11 *601:35 0.0314739
22 *598:15 *601:29 0.00121959
*RES
1 wbs_dat_i[3] *601:29 45.7262 
2 *601:29 *601:33 22.7161 
3 *601:33 *601:35 430.36 
4 *601:35 *803:wbs_dat_i[3] 16.6571 
*END

*D_NET *602 0.102528
*CONN
*P wbs_dat_i[4] I
*I *803:wbs_dat_i[4] I *D memory_macro
*CAP
1 wbs_dat_i[4] 0.000130775
2 *803:wbs_dat_i[4] 0.000529281
3 *602:37 0.00524734
4 *602:25 0.00711427
5 *602:11 0.0175993
6 *602:9 0.0153338
7 *602:11 wbs_dat_o[20] 0.00147978
8 *602:11 wbs_dat_o[25] 0.000115009
9 *602:11 *605:11 0.00903028
10 *602:11 *607:15 0.000398818
11 *602:11 *624:9 0
12 *602:11 *625:17 0.00397899
13 *602:11 *626:9 0.00147198
14 *602:11 *628:13 0.00111598
15 *602:11 *631:9 5.56279e-05
16 *602:11 *633:25 0.00198823
17 *602:11 *637:37 0.00601096
18 *602:11 *644:11 0.00117014
19 *602:25 wbs_dat_o[30] 2.21614e-05
20 *602:25 *627:9 0.000137938
21 *547:27 *602:37 0.00912553
22 *549:11 *602:11 0.013576
23 *560:11 *602:37 9.59396e-05
24 *571:9 *602:11 0.000914173
25 *580:11 *602:25 3.57684e-05
26 *580:11 *602:37 5.56761e-05
27 *590:15 *602:11 0.0014633
28 *593:15 *602:11 0.00182907
29 *594:11 *602:11 4.9908e-05
30 *596:11 *602:11 0.000174762
31 *597:25 *602:37 0.00198064
32 *599:11 *602:11 0.000296709
33 *600:21 *602:25 0
*RES
1 wbs_dat_i[4] *602:9 17.2993 
2 *602:9 *602:11 483.72 
3 *602:11 *602:25 48.4554 
4 *602:25 *602:37 43.6653 
5 *602:37 *803:wbs_dat_i[4] 6.41107 
*END

*D_NET *603 0.104997
*CONN
*P wbs_dat_i[5] I
*I *803:wbs_dat_i[5] I *D memory_macro
*CAP
1 wbs_dat_i[5] 0.0453808
2 *803:wbs_dat_i[5] 0.00054471
3 *603:27 0.0459255
4 *603:27 *604:21 0.000161591
5 *603:27 *619:29 0.00427259
6 *603:27 *644:11 1.29348e-05
7 *542:9 *603:27 7.47186e-05
8 *547:27 *603:27 0.000256217
9 *555:25 *603:27 0.00316236
10 *560:11 *803:wbs_dat_i[5] 4.93791e-05
11 *576:15 *603:27 9.76601e-05
12 *580:11 *803:wbs_dat_i[5] 2.98064e-05
13 *597:25 *603:27 0.00502824
*RES
1 wbs_dat_i[5] *603:27 44.0257 
2 *603:27 *803:wbs_dat_i[5] 22.51 
*END

*D_NET *604 0.169886
*CONN
*P wbs_dat_i[6] I
*I *803:wbs_dat_i[6] I *D memory_macro
*CAP
1 wbs_dat_i[6] 0.000333676
2 *803:wbs_dat_i[6] 0.000517058
3 *604:27 0.0108466
4 *604:21 0.037467
5 *604:11 0.0373197
6 *604:9 0.010516
7 *604:11 *605:21 0.000644636
8 *604:11 *607:29 9.24631e-05
9 *604:11 *611:35 0.00750567
10 *604:11 *635:29 0.00720677
11 *604:11 *635:33 0.00250708
12 *604:11 *636:33 0.0012643
13 *604:11 *638:9 0.00144985
14 *604:11 *642:17 0.00349012
15 *604:11 *642:25 0.000360206
16 *604:21 *612:25 0.0203382
17 *803:wbs_dat_i[0] *604:11 0.00373169
18 *544:21 *604:11 0.000662133
19 *547:15 *604:11 0.000451095
20 *547:25 *604:11 0.000668426
21 *553:17 *604:11 0.00343953
22 *555:25 *604:11 0.00097225
23 *555:25 *604:27 0.000975456
24 *560:11 *604:27 0.00446434
25 *573:11 *604:27 0.000826994
26 *577:21 *604:11 0.000613074
27 *580:11 *604:11 0.00579438
28 *580:11 *604:27 0.00239258
29 *582:21 *604:11 0.000662133
30 *584:13 *604:11 0.00050332
31 *588:27 *604:21 0
32 *598:15 *604:11 0.00111247
33 *601:29 *604:11 0.000595339
34 *603:27 *604:21 0.000161591
*RES
1 wbs_dat_i[6] *604:9 13.8725 
2 *604:9 *604:11 66.9891 
3 *604:11 *604:21 43.213 
4 *604:21 *604:27 42.8413 
5 *604:27 *803:wbs_dat_i[6] 14.4111 
*END

*D_NET *605 0.173215
*CONN
*P wbs_dat_i[7] I
*I *803:wbs_dat_i[7] I *D memory_macro
*CAP
1 wbs_dat_i[7] 8.09523e-05
2 *803:wbs_dat_i[7] 0.000170961
3 *605:43 0.0281723
4 *605:21 0.0285242
5 *605:11 0.00492192
6 *605:9 0.00447996
7 *605:9 *803:wbs_stb_i 3.87221e-06
8 *605:11 wbs_dat_o[20] 0.000490223
9 *605:11 *607:15 0.00478326
10 *605:11 *633:25 0.0210377
11 *605:11 *637:37 0.0033401
12 *605:43 *803:wbs_dat_i[8] 0.0280372
13 *605:43 *607:29 0
14 *605:43 *635:29 0.00022995
15 *605:43 *638:15 0.000204665
16 *605:43 *639:9 0.0011014
17 *803:wbs_adr_i[10] *605:43 0.0107203
18 *544:59 *605:43 0.00890764
19 *549:11 *605:11 0.013569
20 *560:9 *605:21 0
21 *571:9 *605:11 0.00119189
22 *572:37 *605:43 0.000472315
23 *578:11 *605:43 0.000233614
24 *580:11 *605:21 0.000330695
25 *581:11 *605:43 0.00110732
26 *590:15 *605:11 0.000813962
27 *590:15 *605:21 0.000412703
28 *593:25 *605:43 0.000202349
29 *602:11 *605:11 0.00903028
30 *604:11 *605:21 0.000644636
*RES
1 wbs_dat_i[7] *605:9 16.3464 
2 *605:9 *605:11 322.211 
3 *605:11 *605:21 38.1706 
4 *605:21 *605:43 47.6282 
5 *605:43 *803:wbs_dat_i[7] 10.1854 
*END

*D_NET *606 0.181792
*CONN
*P wbs_dat_i[8] I
*I *803:wbs_dat_i[8] I *D memory_macro
*CAP
1 wbs_dat_i[8] 0.000174498
2 *803:wbs_dat_i[8] 0.0401186
3 *606:25 0.0453062
4 *606:11 0.00942668
5 *606:9 0.00441361
6 *803:wbs_dat_i[8] *639:9 4.93791e-05
7 *606:11 wbs_dat_o[20] 0.000711307
8 *606:11 *607:15 0.00276189
9 *606:11 *621:9 0.00071377
10 *606:11 *623:9 0.000417943
11 *606:11 *634:27 0.0015658
12 *606:11 *636:33 0.000137587
13 *606:25 *635:29 0.000613074
14 *606:25 *636:33 0.000619003
15 *606:25 *643:25 2.10458e-05
16 *803:wbs_adr_i[10] *803:wbs_dat_i[8] 0.00229842
17 *544:11 *606:11 0.0196918
18 *544:59 *803:wbs_dat_i[8] 0.000343682
19 *559:9 *606:25 0.000161253
20 *570:11 *606:11 0.021518
21 *572:13 *606:11 0.00235093
22 *581:11 *803:wbs_dat_i[8] 5.45304e-05
23 *591:11 *606:11 0.000285962
24 *605:43 *803:wbs_dat_i[8] 0.0280372
*RES
1 wbs_dat_i[8] *606:9 17.6514 
2 *606:9 *606:11 289.337 
3 *606:11 *606:25 48.9652 
4 *606:25 *803:wbs_dat_i[8] 42.5377 
*END

*D_NET *607 0.171591
*CONN
*P wbs_dat_i[9] I
*I *803:wbs_dat_i[9] I *D memory_macro
*CAP
1 wbs_dat_i[9] 0.000170386
2 *803:wbs_dat_i[9] 0.000170961
3 *607:47 0.00478525
4 *607:37 0.031233
5 *607:29 0.0296314
6 *607:15 0.00722019
7 *607:13 0.0043779
8 *607:15 wbs_dat_o[14] 0.000115009
9 *607:15 wbs_dat_o[17] 0.000115009
10 *607:15 wbs_dat_o[20] 0.00171405
11 *607:15 wbs_dat_o[21] 0.000115009
12 *607:15 *623:9 0.000115599
13 *607:15 *624:9 0.000886674
14 *607:15 *633:25 0.0176454
15 *607:15 *637:37 0.00038178
16 *607:29 *638:9 9.83919e-05
17 *607:37 *629:33 0.0114448
18 *607:37 *635:29 0.0112935
19 *607:47 *612:17 0.0107945
20 *607:47 *615:17 0.00417841
21 *607:47 *629:13 0.000913505
22 *607:47 *637:17 0.00182757
23 *607:47 *639:9 9.59396e-05
24 *547:9 *607:15 0.000115009
25 *555:15 *607:15 0.000115009
26 *558:9 *607:15 0.000115009
27 *559:9 *607:15 0.000170405
28 *570:11 *607:15 0.0199521
29 *571:9 *607:15 0.00273265
30 *572:37 *607:29 0
31 *578:9 *607:15 0.000115009
32 *579:9 *607:15 0.000115009
33 *581:11 *607:47 0.000101859
34 *582:9 *607:15 0.000115009
35 *584:13 *607:15 0.000115009
36 *585:9 *607:15 0.000115009
37 *586:13 *607:15 0.000115009
38 *588:27 *607:29 0
39 *592:11 *607:15 0.000237829
40 *602:11 *607:15 0.000398818
41 *604:11 *607:29 9.24631e-05
42 *605:11 *607:15 0.00478326
43 *605:43 *607:29 0
44 *606:11 *607:15 0.00276189
*RES
1 wbs_dat_i[9] *607:13 17.6929 
2 *607:13 *607:15 299.819 
3 *607:15 *607:29 42.9556 
4 *607:29 *607:37 23.0661 
5 *607:37 *607:47 44.5357 
6 *607:47 *803:wbs_dat_i[9] 10.1854 
*END

*D_NET *608 0.0594811
*CONN
*P wbs_dat_o[0] O
*I *803:wbs_dat_o[0] O *D memory_macro
*CAP
1 wbs_dat_o[0] 0.000558222
2 *803:wbs_dat_o[0] 0.00019988
3 *608:9 0.00580874
4 *608:7 0.0054504
5 *608:9 wbs_dat_o[9] 0.000341929
6 *608:9 *639:9 0.00130576
7 *608:9 *640:11 0.025775
8 *608:9 *641:27 5.22967e-05
9 *543:17 *608:9 0.0199888
10 *581:9 *608:7 0
*RES
1 *803:wbs_dat_o[0] *608:7 11.5939 
2 *608:7 *608:9 48.9141 
3 *608:9 wbs_dat_o[0] 20.2111 
*END

*D_NET *609 0.232603
*CONN
*P wbs_dat_o[10] O
*I *803:wbs_dat_o[10] O *D memory_macro
*CAP
1 wbs_dat_o[10] 0.000236147
2 *803:wbs_dat_o[10] 0.000137697
3 *609:21 0.0124076
4 *609:17 0.04736
5 *609:15 0.0474569
6 *609:11 0.012406
7 *609:11 *622:17 4.93791e-05
8 *609:17 *803:cpu_mem_addr[1] 0
9 *609:17 *803:cpu_mem_addr[2] 0
10 *609:17 *803:cpu_mem_wdata[23] 0
11 *609:17 *803:cpu_mem_we[0] 4.60071e-05
12 *609:17 *803:cpu_mem_we[1] 4.635e-05
13 *609:17 *685:18 0
14 *609:17 *789:17 0
15 *609:17 *790:17 0
16 *609:21 *745:10 0.000249059
17 *609:21 *788:25 0
18 *529:26 *609:17 0.000240368
19 *545:17 *609:21 0
20 *545:19 *609:17 0.0939525
21 *552:21 *609:17 0.0178877
22 *571:9 wbs_dat_o[10] 5.10545e-05
23 *572:13 wbs_dat_o[10] 4.62763e-05
24 *581:11 *609:11 2.98064e-05
*RES
1 *803:wbs_dat_o[10] *609:11 17.58 
2 *609:11 *609:15 46.2629 
3 *609:15 *609:17 175.052 
4 *609:17 *609:21 48.5477 
5 *609:21 wbs_dat_o[10] 17.9736 
*END

*D_NET *610 0.253309
*CONN
*P wbs_dat_o[11] O
*I *803:wbs_dat_o[11] O *D memory_macro
*CAP
1 wbs_dat_o[11] 0.000312108
2 *803:wbs_dat_o[11] 0.000853953
3 *610:9 0.0212798
4 *610:7 0.0218217
5 *610:9 *613:9 0.00340946
6 *610:9 *617:9 0.00385416
7 *610:9 *618:9 0.0863238
8 *610:9 *621:9 0.014809
9 *610:9 *627:9 0.00845332
10 *610:9 *636:33 0.035408
11 *610:9 *637:37 0.000294151
12 *610:9 *638:9 0.0224566
13 *544:11 *610:9 0.000104089
14 *572:13 *610:9 0.0133624
15 *577:11 *610:9 0.00207309
16 *578:9 wbs_dat_o[11] 0
17 *582:11 *610:9 0.00152674
18 *591:11 *610:9 0.0169669
*RES
1 *803:wbs_dat_o[11] *610:7 20.7496 
2 *610:7 *610:9 186.387 
3 *610:9 wbs_dat_o[11] 11.2832 
*END

*D_NET *611 0.206477
*CONN
*P wbs_dat_o[12] O
*I *803:wbs_dat_o[12] O *D memory_macro
*CAP
1 wbs_dat_o[12] 0.000452532
2 *803:wbs_dat_o[12] 0.0033773
3 *611:35 0.00460298
4 *611:29 0.064073
5 *611:17 0.0632999
6 *611:17 *612:17 0.00817078
7 *611:17 *615:17 0.00235797
8 *611:17 *622:17 0.00288718
9 *611:17 *625:9 0.00047714
10 *611:35 *635:29 0.00244398
11 *611:35 *636:33 0.0171749
12 *611:35 *643:11 0.0025402
13 *544:59 *611:29 0.0111983
14 *577:21 *611:35 0.000619003
15 *579:35 *611:17 0.000385829
16 *579:35 *611:29 0
17 *581:11 *611:17 0.00139165
18 *589:11 *611:35 0.000263663
19 *600:21 *611:29 0.0132546
20 *604:11 *611:35 0.00750567
*RES
1 *803:wbs_dat_o[12] *611:17 47.1923 
2 *611:17 *611:29 47.9113 
3 *611:29 *611:35 47.9555 
4 *611:35 wbs_dat_o[12] 4.46393 
*END

*D_NET *612 0.238824
*CONN
*P wbs_dat_o[13] O
*I *803:wbs_dat_o[13] O *D memory_macro
*CAP
1 wbs_dat_o[13] 0.0107509
2 *803:wbs_dat_o[13] 0.00072101
3 *612:25 0.0558481
4 *612:17 0.0564595
5 *612:15 0.0120834
6 *612:15 *622:17 0.0017354
7 *612:15 *625:9 0.000323808
8 *612:17 *615:17 0.00501834
9 *612:17 *629:13 0.0419263
10 *548:17 wbs_dat_o[13] 0
11 *549:29 *612:25 0.0131871
12 *571:9 wbs_dat_o[13] 5.10545e-05
13 *572:13 wbs_dat_o[13] 4.62763e-05
14 *581:11 *612:15 0.000986985
15 *593:25 *612:15 0.000382135
16 *604:21 *612:25 0.0203382
17 *607:47 *612:17 0.0107945
18 *611:17 *612:17 0.00817078
*RES
1 *803:wbs_dat_o[13] *612:15 29.3208 
2 *612:15 *612:17 79.912 
3 *612:17 *612:25 49.7567 
4 *612:25 wbs_dat_o[13] 47.4806 
*END

*D_NET *613 0.210549
*CONN
*P wbs_dat_o[14] O
*I *803:wbs_dat_o[14] O *D memory_macro
*CAP
1 wbs_dat_o[14] 0.000471515
2 *803:wbs_dat_o[14] 0.000724322
3 *613:9 0.0321966
4 *613:7 0.0324494
5 *613:9 wbs_dat_o[29] 0
6 *613:9 *617:9 0.104817
7 *613:9 *627:9 0.000183817
8 *613:9 *636:33 0.00414352
9 *613:9 *638:9 0.00860208
10 *613:9 *643:11 0.00626331
11 *577:11 *613:9 0.000448156
12 *582:11 *613:9 0.00301686
13 *589:11 *613:9 0.0137082
14 *589:27 *613:9 0
15 *590:17 *613:9 0
16 *607:15 wbs_dat_o[14] 0.000115009
17 *610:9 *613:9 0.00340946
*RES
1 *803:wbs_dat_o[14] *613:7 26.5171 
2 *613:7 *613:9 1216.47 
3 *613:9 wbs_dat_o[14] 19.7643 
*END

*D_NET *614 0.331913
*CONN
*P wbs_dat_o[15] O
*I *803:wbs_dat_o[15] O *D memory_macro
*CAP
1 wbs_dat_o[15] 0.000292176
2 *803:wbs_dat_o[15] 0.00061532
3 *614:21 0.0125897
4 *614:17 0.0422402
5 *614:15 0.0414846
6 *614:11 0.0121573
7 *614:11 *622:17 0.00198711
8 *614:11 *625:9 0.000375862
9 *614:17 *803:cpu_mem_wdata[3] 0
10 *614:17 *752:15 9.14695e-05
11 *614:17 *753:15 9.14695e-05
12 *614:17 *754:19 0.00124935
13 *614:17 *786:22 0.00826483
14 *546:19 *614:17 0.0882039
15 *546:25 *614:17 0.00259593
16 *547:25 *614:21 0
17 *550:17 *614:21 0
18 *550:19 *614:17 0.118211
19 *571:9 wbs_dat_o[15] 0.00014572
20 *572:13 wbs_dat_o[15] 0.000139791
21 *582:31 *614:15 0
22 *583:11 *614:11 0.000735144
23 *593:25 *614:11 0.000442232
*RES
1 *803:wbs_dat_o[15] *614:11 21.2723 
2 *614:11 *614:15 45.8821 
3 *614:15 *614:17 226.916 
4 *614:17 *614:21 48.1669 
5 *614:21 wbs_dat_o[15] 18.1453 
*END

*D_NET *615 0.196914
*CONN
*P wbs_dat_o[16] O
*I *803:wbs_dat_o[16] O *D memory_macro
*CAP
1 wbs_dat_o[16] 0.00148423
2 *803:wbs_dat_o[16] 0.000703757
3 *615:17 0.0458921
4 *615:15 0.0451116
5 wbs_dat_o[16] *634:25 8.91416e-05
6 wbs_dat_o[16] *639:9 9.28558e-05
7 *615:15 *622:17 9.44959e-05
8 *615:17 *629:13 0.00331794
9 *615:17 *636:17 0.00654741
10 *615:17 *637:17 0.00127029
11 *615:17 *641:35 0.00199897
12 *615:17 *643:35 0.00641017
13 *548:19 *615:17 0.00209877
14 *553:19 *615:17 0.0588291
15 *572:29 *615:17 0.0110449
16 *584:17 wbs_dat_o[16] 0.000343339
17 *585:11 *615:15 2.98092e-05
18 *607:47 *615:17 0.00417841
19 *611:17 *615:17 0.00235797
20 *612:17 *615:17 0.00501834
*RES
1 *803:wbs_dat_o[16] *615:15 26.7373 
2 *615:15 *615:17 241.341 
3 *615:17 wbs_dat_o[16] 39.6811 
*END

*D_NET *616 0.32344
*CONN
*P wbs_dat_o[17] O
*I *803:wbs_dat_o[17] O *D memory_macro
*CAP
1 wbs_dat_o[17] 0.00110857
2 *803:wbs_dat_o[17] 0.000978421
3 *616:21 0.00916012
4 *616:19 0.00843938
5 *616:13 0.0208799
6 *616:11 0.0214705
7 *616:11 *622:9 0.00236774
8 *616:11 *625:9 0.000454508
9 *616:11 *629:13 1.03369e-05
10 *616:13 *622:17 0.0956909
11 *616:13 *629:13 0.0932512
12 *616:13 *637:17 0.00123028
13 *616:21 *803:wbs_sel_i[1] 0.00108338
14 *616:21 *619:29 0.000182532
15 *616:21 *622:29 0.0252964
16 *616:21 *630:13 0.001277
17 *616:21 *634:11 0.0336724
18 *616:21 *637:31 0.000308888
19 *616:21 *639:9 0.00330367
20 *552:17 wbs_dat_o[17] 0.000469073
21 *570:11 wbs_dat_o[17] 0.000115009
22 *571:9 wbs_dat_o[17] 0.000291172
23 *572:13 wbs_dat_o[17] 0.000285243
24 *572:25 *616:21 4.62843e-05
25 *577:29 wbs_dat_o[17] 0.000741303
26 *585:11 *616:11 0.000678283
27 *593:25 *616:11 0.00053303
28 *607:15 wbs_dat_o[17] 0.000115009
*RES
1 *803:wbs_dat_o[17] *616:11 14.4408 
2 *616:11 *616:13 182.78 
3 *616:13 *616:19 16.3995 
4 *616:19 *616:21 64.456 
5 *616:21 wbs_dat_o[17] 29.1011 
*END

*D_NET *617 0.305808
*CONN
*P wbs_dat_o[18] O
*I *803:wbs_dat_o[18] O *D memory_macro
*CAP
1 wbs_dat_o[18] 0.00039524
2 *803:wbs_dat_o[18] 0.000702462
3 *617:9 0.0231009
4 *617:7 0.0234081
5 *617:9 *621:9 0.128879
6 *617:9 *627:9 0.00454899
7 *617:9 *636:33 0.00426635
8 *617:9 *638:9 0.00745085
9 *544:11 *617:9 0.000331291
10 *582:11 *617:9 0.0040539
11 *585:9 wbs_dat_o[18] 0
12 *589:27 *617:9 0
13 *610:9 *617:9 0.00385416
14 *613:9 *617:9 0.104817
*RES
1 *803:wbs_dat_o[18] *617:7 26.8693 
2 *617:7 *617:9 1465.64 
3 *617:9 wbs_dat_o[18] 19.1636 
*END

*D_NET *618 0.371455
*CONN
*P wbs_dat_o[19] O
*I *803:wbs_dat_o[19] O *D memory_macro
*CAP
1 wbs_dat_o[19] 0.000310571
2 *803:wbs_dat_o[19] 0.000820353
3 *618:9 0.0310577
4 *618:7 0.0315675
5 wbs_dat_o[19] *633:23 0
6 *618:9 wbs_dat_o[20] 0.0186423
7 *618:9 wbs_dat_o[31] 0.00143461
8 *618:9 *620:9 0.126009
9 *618:9 *623:9 0.0259399
10 *618:9 *624:9 0.000158733
11 *618:9 *626:9 0.000450313
12 *618:9 *627:9 0.017383
13 *618:9 *637:37 0.000515714
14 *544:11 *618:9 0.000450659
15 *555:15 *618:9 9.59299e-05
16 *592:11 *618:9 0.0300179
17 *594:11 *618:9 0.00013749
18 *600:21 *618:9 0.000139791
19 *610:9 *618:9 0.0863238
*RES
1 *803:wbs_dat_o[19] *618:7 21.4539 
2 *618:7 *618:9 274.915 
3 *618:9 wbs_dat_o[19] 10.3511 
*END

*D_NET *619 0.0642103
*CONN
*P wbs_dat_o[1] O
*I *803:wbs_dat_o[1] O *D memory_macro
*CAP
1 wbs_dat_o[1] 6.5784e-05
2 *803:wbs_dat_o[1] 0.0290767
3 *619:29 0.0291425
4 *619:29 *639:9 0.000185657
5 *541:27 *619:29 0.000619238
6 *576:15 *619:29 1.72853e-05
7 *587:11 *619:29 0
8 *601:29 *619:29 0.00064795
9 *603:27 *619:29 0.00427259
10 *616:21 *619:29 0.000182532
*RES
1 *803:wbs_dat_o[1] *619:29 48.844 
2 *619:29 wbs_dat_o[1] 1.50179 
*END

*D_NET *620 0.420898
*CONN
*P wbs_dat_o[20] O
*I *803:wbs_dat_o[20] O *D memory_macro
*CAP
1 wbs_dat_o[20] 0.00685847
2 *803:wbs_dat_o[20] 0.000871331
3 *620:23 0.00800658
4 *620:9 0.0237219
5 *620:7 0.0234451
6 wbs_dat_o[20] *624:9 0.00162217
7 wbs_dat_o[20] *625:17 0.000171755
8 wbs_dat_o[20] *626:9 0.00803366
9 *620:9 *624:9 0.0249235
10 *620:9 *626:9 0.133856
11 *620:9 *627:9 0.00143488
12 *620:23 wbs_dat_o[31] 3.41998e-06
13 *620:23 *626:9 0.00249657
14 *620:23 *631:9 0.00104163
15 *549:11 wbs_dat_o[20] 0.00043366
16 *559:9 wbs_dat_o[20] 0.000252586
17 *570:11 wbs_dat_o[20] 0.000225164
18 *590:15 wbs_dat_o[20] 0.00234464
19 *593:15 wbs_dat_o[20] 0.00128939
20 *594:11 wbs_dat_o[20] 0.00158232
21 *594:11 *620:9 0.0287662
22 *599:11 *620:23 0.000451114
23 *600:21 *620:23 2.00313e-05
24 *602:11 wbs_dat_o[20] 0.00147978
25 *605:11 wbs_dat_o[20] 0.000490223
26 *606:11 wbs_dat_o[20] 0.000711307
27 *607:15 wbs_dat_o[20] 0.00171405
28 *618:9 wbs_dat_o[20] 0.0186423
29 *618:9 *620:9 0.126009
*RES
1 *803:wbs_dat_o[20] *620:7 22.1582 
2 *620:7 *620:9 246.751 
3 *620:9 *620:23 39.7141 
4 *620:23 wbs_dat_o[20] 44.6385 
*END

*D_NET *621 0.341843
*CONN
*P wbs_dat_o[21] O
*I *803:wbs_dat_o[21] O *D memory_macro
*CAP
1 wbs_dat_o[21] 0.000311798
2 *803:wbs_dat_o[21] 0.000704522
3 *621:9 0.0236033
4 *621:7 0.0239961
5 *621:9 *627:9 0.00033111
6 *544:11 *621:9 3.3577e-05
7 *544:21 wbs_dat_o[21] 3.48437e-05
8 *589:27 *621:9 0
9 *590:17 *621:9 0
10 *591:11 *621:9 0.148311
11 *606:11 *621:9 0.00071377
12 *607:15 wbs_dat_o[21] 0.000115009
13 *610:9 *621:9 0.014809
14 *617:9 *621:9 0.128879
*RES
1 *803:wbs_dat_o[21] *621:7 27.2214 
2 *621:7 *621:9 1648.11 
3 *621:9 wbs_dat_o[21] 19.06 
*END

*D_NET *622 0.394867
*CONN
*P wbs_dat_o[22] O
*I *803:wbs_dat_o[22] O *D memory_macro
*CAP
1 wbs_dat_o[22] 0.00108931
2 *803:wbs_dat_o[22] 5.15074e-05
3 *622:29 0.00676555
4 *622:27 0.00597946
5 *622:17 0.0229364
6 *622:15 0.0228191
7 *622:9 0.016598
8 *622:7 0.0164637
9 *622:9 *625:9 0.00763049
10 *622:9 *629:13 0.019822
11 *622:9 *632:13 0.00878202
12 *622:17 *625:9 0.00963282
13 *622:17 *632:13 0.020921
14 *622:17 *637:17 5.61625e-06
15 *622:17 *639:9 0.0377162
16 *622:27 *634:9 7.83818e-06
17 *622:29 *630:13 0.00109171
18 *622:29 *632:13 0.00182112
19 *622:29 *639:9 0.0253071
20 *803:wbs_adr_i[10] *622:17 4.93791e-05
21 *803:wbs_adr_i[11] *622:17 0.000459141
22 *803:wbs_adr_i[13] *622:17 9.44959e-05
23 *803:wbs_adr_i[14] *622:17 9.44959e-05
24 *803:wbs_adr_i[16] *622:17 4.93791e-05
25 *803:wbs_adr_i[17] *622:17 4.93791e-05
26 *803:wbs_adr_i[18] *622:9 0.00207282
27 *803:wbs_adr_i[19] *622:9 9.44959e-05
28 *803:wbs_dat_i[10] *622:17 0.00474503
29 *803:wbs_dat_i[15] *622:17 4.93791e-05
30 *803:wbs_dat_i[17] *622:17 0.00108958
31 *546:31 *622:17 0.000595877
32 *555:25 *622:9 0.000367979
33 *556:11 *622:9 0.00225265
34 *557:11 *622:9 0.0026486
35 *560:11 *622:9 0
36 *579:35 *622:17 0.00384822
37 *581:11 *622:17 0.00648191
38 *583:11 *622:17 0.00377744
39 *585:11 *622:9 0.000568163
40 *585:11 *622:17 0.00115766
41 *586:15 *622:9 0
42 *588:51 *622:9 4.93791e-05
43 *593:25 *622:9 0.00584072
44 *593:25 *622:17 0.0027618
45 *593:25 *622:27 0.000119224
46 *595:27 *622:9 0
47 *609:11 *622:17 4.93791e-05
48 *611:17 *622:17 0.00288718
49 *612:15 *622:17 0.0017354
50 *614:11 *622:17 0.00198711
51 *615:15 *622:17 9.44959e-05
52 *616:11 *622:9 0.00236774
53 *616:13 *622:17 0.0956909
54 *616:21 *622:29 0.0252964
*RES
1 *803:wbs_dat_o[22] *622:7 8.77679 
2 *622:7 *622:9 76.6491 
3 *622:9 *622:15 17.5743 
4 *622:15 *622:17 182.694 
5 *622:17 *622:27 19.7493 
6 *622:27 *622:29 48.3989 
7 *622:29 wbs_dat_o[22] 23.0282 
*END

*D_NET *623 0.390377
*CONN
*P wbs_dat_o[23] O
*I *803:wbs_dat_o[23] O *D memory_macro
*CAP
1 wbs_dat_o[23] 0.000242991
2 *803:wbs_dat_o[23] 0.000693742
3 *623:9 0.0208868
4 *623:7 0.0213375
5 *591:11 *623:9 0.159644
6 *592:11 *623:9 0.161099
7 *606:11 *623:9 0.000417943
8 *607:15 *623:9 0.000115599
9 *618:9 *623:9 0.0259399
*RES
1 *803:wbs_dat_o[23] *623:7 27.9257 
2 *623:7 *623:9 1771.98 
3 *623:9 wbs_dat_o[23] 17.8793 
*END

*D_NET *624 0.403564
*CONN
*P wbs_dat_o[24] O
*I *803:wbs_dat_o[24] O *D memory_macro
*CAP
1 wbs_dat_o[24] 0.000216537
2 *803:wbs_dat_o[24] 0.000714483
3 *624:9 0.0216791
4 *624:7 0.0221771
5 *624:9 wbs_dat_o[31] 0.000258741
6 *624:9 *625:17 0.000132392
7 *624:9 *626:9 0.000375018
8 wbs_dat_o[20] *624:9 0.00162217
9 *592:11 *624:9 0.165377
10 *594:11 *624:9 0.165043
11 *602:11 *624:9 0
12 *607:15 *624:9 0.000886674
13 *618:9 *624:9 0.000158733
14 *620:9 *624:9 0.0249235
*RES
1 *803:wbs_dat_o[24] *624:7 28.63 
2 *624:7 *624:9 1832.97 
3 *624:9 wbs_dat_o[24] 17.6514 
*END

*D_NET *625 0.364003
*CONN
*P wbs_dat_o[25] O
*I *803:wbs_dat_o[25] O *D memory_macro
*CAP
1 wbs_dat_o[25] 0.000124044
2 *803:wbs_dat_o[25] 5.72124e-05
3 *625:17 0.000984252
4 *625:15 0.00174611
5 *625:9 0.0302316
6 *625:7 0.0294029
7 *625:9 *629:13 0.00230321
8 *625:9 *632:13 0.165595
9 *625:9 *633:9 0.00597996
10 *625:9 *639:9 0.00870997
11 wbs_dat_o[20] *625:17 0.000171755
12 *803:wbs_adr_i[18] *625:9 0.000393213
13 *803:wbs_dat_i[10] *625:9 0.000884706
14 *803:wbs_dat_i[17] *625:9 0.000202349
15 *546:31 *625:9 0.000106936
16 *561:11 *625:9 0
17 *563:9 *625:15 0.000708576
18 *578:11 *625:9 0.00195436
19 *583:11 *625:9 0.000795929
20 *593:15 *625:17 0.000527347
21 *593:25 *625:9 0.0891676
22 *594:11 *625:17 0.000834882
23 *602:11 wbs_dat_o[25] 0.000115009
24 *602:11 *625:17 0.00397899
25 *611:17 *625:9 0.00047714
26 *612:15 *625:9 0.000323808
27 *614:11 *625:9 0.000375862
28 *616:11 *625:9 0.000454508
29 *622:9 *625:9 0.00763049
30 *622:17 *625:9 0.00963282
31 *624:9 *625:17 0.000132392
*RES
1 *803:wbs_dat_o[25] *625:7 15.9529 
2 *625:7 *625:9 1851.55 
3 *625:9 *625:15 44.5829 
4 *625:15 *625:17 43.5 
5 *625:17 wbs_dat_o[25] 17.2993 
*END

*D_NET *626 0.38248
*CONN
*P wbs_dat_o[26] O
*I *803:wbs_dat_o[26] O *D memory_macro
*CAP
1 wbs_dat_o[26] 0.00014458
2 *803:wbs_dat_o[26] 0.000758066
3 *626:9 0.0765638
4 *626:7 0.0771773
5 *626:9 wbs_dat_o[31] 0.00143809
6 *626:9 *627:9 0
7 *626:9 *628:13 0.0402946
8 *626:9 *631:9 0.000294933
9 wbs_dat_o[20] *626:9 0.00803366
10 *593:15 *626:9 0.00192315
11 *594:11 *626:9 0.00173375
12 *596:11 *626:9 0.0350321
13 *599:11 *626:9 0.000290423
14 *600:21 *626:9 0.00014572
15 *602:11 *626:9 0.00147198
16 *618:9 *626:9 0.000450313
17 *620:9 *626:9 0.133856
18 *620:23 *626:9 0.00249657
19 *624:9 *626:9 0.000375018
*RES
1 *803:wbs_dat_o[26] *626:7 22.8625 
2 *626:7 *626:9 352.71 
3 *626:9 wbs_dat_o[26] 9.50179 
*END

*D_NET *627 0.304249
*CONN
*P wbs_dat_o[27] O
*I *803:wbs_dat_o[27] O *D memory_macro
*CAP
1 wbs_dat_o[27] 0.000482566
2 *803:wbs_dat_o[27] 0.000519246
3 *627:9 0.07556
4 *627:7 0.0755966
5 *627:9 *629:33 0.000232671
6 *627:9 *638:9 0.048523
7 *549:35 *627:9 0.0148425
8 *555:25 *627:9 0.0164685
9 *560:11 *627:9 0
10 *580:11 *627:9 0.0193364
11 *589:27 *627:9 0.0164644
12 *590:17 *627:9 0.00265622
13 *591:11 *627:9 0.000802326
14 *593:15 wbs_dat_o[27] 0.000238861
15 *595:27 *627:9 0
16 *597:17 *627:9 5.22967e-05
17 *602:25 *627:9 0.000137938
18 *610:9 *627:9 0.00845332
19 *613:9 *627:9 0.000183817
20 *617:9 *627:9 0.00454899
21 *618:9 *627:9 0.017383
22 *620:9 *627:9 0.00143488
23 *621:9 *627:9 0.00033111
24 *626:9 *627:9 0
*RES
1 *803:wbs_dat_o[27] *627:7 18.6368 
2 *627:7 *627:9 363.701 
3 *627:9 wbs_dat_o[27] 13.6446 
*END

*D_NET *628 0.465572
*CONN
*P wbs_dat_o[28] O
*I *803:wbs_dat_o[28] O *D memory_macro
*CAP
1 wbs_dat_o[28] 0.000198094
2 *803:wbs_dat_o[28] 0.000736001
3 *628:13 0.024473
4 *628:11 0.0250109
5 *596:11 *628:13 0.186046
6 *599:9 *628:13 0.000115009
7 *599:11 *628:13 0.187582
8 *602:11 *628:13 0.00111598
9 *626:9 *628:13 0.0402946
*RES
1 *803:wbs_dat_o[28] *628:11 30.9293 
2 *628:11 *628:13 2078.8 
3 *628:13 wbs_dat_o[28] 17.2993 
*END

*D_NET *629 0.434191
*CONN
*P wbs_dat_o[29] O
*I *803:wbs_dat_o[29] O *D memory_macro
*CAP
1 wbs_dat_o[29] 0.000728858
2 *803:wbs_dat_o[29] 0.000963867
3 *629:33 0.0162458
4 *629:13 0.0696833
5 *629:11 0.0551302
6 *629:11 *632:13 0.000607889
7 *629:13 *632:13 0.00760715
8 *629:13 *637:17 0.0200154
9 *803:wbs_dat_i[29] *629:13 0.000881982
10 *553:19 *629:13 0
11 *562:43 *629:13 2.04785e-05
12 *580:11 *629:33 0.000222302
13 *589:17 wbs_dat_o[29] 0
14 *590:17 wbs_dat_o[29] 0.000401106
15 *595:27 *629:13 0
16 *597:27 *629:13 0.0884605
17 *607:37 *629:33 0.0114448
18 *607:47 *629:13 0.000913505
19 *612:17 *629:13 0.0419263
20 *613:9 wbs_dat_o[29] 0
21 *615:17 *629:13 0.00331794
22 *616:11 *629:13 1.03369e-05
23 *616:13 *629:13 0.0932512
24 *622:9 *629:13 0.019822
25 *625:9 *629:13 0.00230321
26 *627:9 *629:33 0.000232671
*RES
1 *803:wbs_dat_o[29] *629:11 11.8475 
2 *629:11 *629:13 352.968 
3 *629:13 *629:33 40.9036 
4 *629:33 wbs_dat_o[29] 40.8336 
*END

*D_NET *630 0.067602
*CONN
*P wbs_dat_o[2] O
*I *803:wbs_dat_o[2] O *D memory_macro
*CAP
1 wbs_dat_o[2] 0.00058175
2 *803:wbs_dat_o[2] 9.4488e-05
3 *630:21 0.00774684
4 *630:19 0.00742112
5 *630:13 0.00609983
6 *630:11 0.00593829
7 wbs_dat_o[2] *642:17 0
8 *630:13 *803:wbs_sel_i[1] 0.000233614
9 *630:13 *633:9 0.000429211
10 *630:13 *634:25 0.000264607
11 *630:13 *639:9 0.000109901
12 *803:wbs_adr_i[2] *630:13 0.00101869
13 *554:11 *630:21 0.00552209
14 *565:19 *630:21 0.00195279
15 *568:11 *630:21 0.0229385
16 *583:9 *630:19 2.81374e-05
17 *601:35 *630:13 0.0048535
18 *616:21 *630:13 0.001277
19 *622:29 *630:13 0.00109171
*RES
1 *803:wbs_dat_o[2] *630:11 16.7193 
2 *630:11 *630:13 172.612 
3 *630:13 *630:19 34.3707 
4 *630:19 *630:21 262.181 
5 *630:21 wbs_dat_o[2] 26.455 
*END

*D_NET *631 0.330202
*CONN
*P wbs_dat_o[30] O
*I *803:wbs_dat_o[30] O *D memory_macro
*CAP
1 wbs_dat_o[30] 0.000191899
2 *803:wbs_dat_o[30] 0.000697431
3 *631:9 0.0654964
4 *631:7 0.0660019
5 *599:11 *631:9 0.1964
6 *602:11 *631:9 5.56279e-05
7 *602:25 wbs_dat_o[30] 2.21614e-05
8 *620:23 *631:9 0.00104163
9 *626:9 *631:9 0.000294933
*RES
1 *803:wbs_dat_o[30] *631:7 30.3907 
2 *631:7 *631:9 2203.63 
3 *631:9 wbs_dat_o[30] 16.8229 
*END

*D_NET *632 0.357677
*CONN
*P wbs_dat_o[31] O
*I *803:wbs_dat_o[31] O *D memory_macro
*CAP
1 wbs_dat_o[31] 0.00145933
2 *803:wbs_dat_o[31] 6.67232e-05
3 *632:13 0.0738791
4 *632:11 0.0724865
5 *803:wbs_dat_i[29] *632:13 0.000787743
6 *561:11 *632:13 0
7 *563:11 *632:13 0
8 *594:11 wbs_dat_o[31] 0.000413727
9 *596:11 wbs_dat_o[31] 0.000115009
10 *618:9 wbs_dat_o[31] 0.00143461
11 *620:23 wbs_dat_o[31] 3.41998e-06
12 *622:9 *632:13 0.00878202
13 *622:17 *632:13 0.020921
14 *622:29 *632:13 0.00182112
15 *624:9 wbs_dat_o[31] 0.000258741
16 *625:9 *632:13 0.165595
17 *626:9 wbs_dat_o[31] 0.00143809
18 *629:11 *632:13 0.000607889
19 *629:13 *632:13 0.00760715
*RES
1 *803:wbs_dat_o[31] *632:11 16.7193 
2 *632:11 *632:13 2249.84 
3 *632:13 wbs_dat_o[31] 49.3127 
*END

*D_NET *633 0.102054
*CONN
*P wbs_dat_o[3] O
*I *803:wbs_dat_o[3] O *D memory_macro
*CAP
1 wbs_dat_o[3] 0.000113471
2 *803:wbs_dat_o[3] 9.44391e-05
3 *633:25 0.00493743
4 *633:23 0.00546774
5 *633:17 0.00320263
6 *633:15 0.00283899
7 *633:9 0.0025011
8 *633:7 0.0023154
9 *633:9 *639:9 0.0023737
10 *633:25 *634:27 8.60649e-05
11 *633:25 *637:37 0.000303875
12 *633:25 *641:11 0.000415793
13 wbs_dat_o[19] *633:23 0
14 *542:9 *633:25 0.000374079
15 *556:11 *633:17 0
16 *557:11 *633:17 0
17 *558:11 *633:17 0.000191384
18 *559:11 *633:17 0.000545617
19 *565:19 *633:17 0.000344974
20 *568:11 *633:17 0.00913591
21 *570:11 *633:25 0.0041088
22 *571:9 *633:25 0.00315487
23 *572:13 *633:25 0.000609805
24 *576:15 *633:25 0.000107237
25 *578:11 *633:9 0.00138082
26 *579:21 *633:23 0.00024072
27 *585:11 *633:17 0.000107106
28 *586:15 *633:17 0.00172264
29 *601:35 *633:9 0.00829877
30 *602:11 *633:25 0.00198823
31 *605:11 *633:25 0.0210377
32 *607:15 *633:25 0.0176454
33 *625:9 *633:9 0.00597996
34 *630:13 *633:9 0.000429211
*RES
1 *803:wbs_dat_o[3] *633:7 16.305 
2 *633:7 *633:9 115.441 
3 *633:9 *633:15 33.6664 
4 *633:15 *633:17 99.7186 
5 *633:17 *633:23 40.005 
6 *633:23 *633:25 302.201 
7 *633:25 wbs_dat_o[3] 17.2993 
*END

*D_NET *634 0.124087
*CONN
*P wbs_dat_o[4] O
*I *803:wbs_dat_o[4] O *D memory_macro
*CAP
1 wbs_dat_o[4] 0.000195539
2 *803:wbs_dat_o[4] 0.000185182
3 *634:27 0.00509445
4 *634:25 0.00734358
5 *634:11 0.0104913
6 *634:9 0.0082318
7 *634:11 *637:17 0.0288526
8 *634:11 *638:17 0.00276829
9 *634:11 *639:9 0.000206344
10 *634:25 *638:17 0.00116392
11 *634:25 *639:9 0.00201392
12 *634:27 *641:11 0.000660975
13 *634:27 *643:11 0
14 wbs_dat_o[16] *634:25 8.91416e-05
15 *544:11 *634:27 0.00855797
16 *570:11 *634:27 0.00221651
17 *572:13 *634:27 0.00238406
18 *577:11 *634:27 0.0080343
19 *606:11 *634:27 0.0015658
20 *616:21 *634:11 0.0336724
21 *622:27 *634:9 7.83818e-06
22 *630:13 *634:25 0.000264607
23 *633:25 *634:27 8.60649e-05
*RES
1 *803:wbs_dat_o[4] *634:9 9.08665 
2 *634:9 *634:11 65.8728 
3 *634:11 *634:25 43.5427 
4 *634:25 *634:27 194.051 
5 *634:27 wbs_dat_o[4] 18.1071 
*END

*D_NET *635 0.137022
*CONN
*P wbs_dat_o[5] O
*I *803:wbs_dat_o[5] O *D memory_macro
*CAP
1 wbs_dat_o[5] 0.000415992
2 *803:wbs_dat_o[5] 0.00489677
3 *635:33 0.0109108
4 *635:31 0.0104948
5 *635:29 0.0142587
6 *635:15 0.0191555
7 wbs_dat_o[5] *645:23 0
8 *635:15 *639:9 0.0132164
9 *635:29 *636:33 0.00201562
10 *635:29 *638:15 0.000850075
11 *635:29 *643:11 0.000584352
12 *635:33 *643:11 0
13 *803:wbs_dat_i[0] *635:33 0.000154527
14 *547:15 *635:33 0.00162505
15 *547:25 *635:33 0.000119931
16 *549:21 *635:29 0.000329105
17 *553:17 *635:33 0.000361321
18 *555:25 *635:29 0.000603291
19 *556:9 *635:29 7.10189e-05
20 *569:11 *635:33 0
21 *570:17 *635:29 0
22 *576:15 wbs_dat_o[5] 0
23 *578:11 *635:15 0.0027343
24 *579:11 *635:33 0.0125237
25 *581:11 *635:15 0.0132223
26 *582:21 *635:29 0.00011492
27 *584:13 *635:33 0.000180268
28 *588:11 *635:33 0.00101412
29 *589:11 *635:29 0.000506147
30 *593:25 *635:15 0.00236837
31 *604:11 *635:29 0.00720677
32 *604:11 *635:33 0.00250708
33 *605:43 *635:29 0.00022995
34 *606:25 *635:29 0.000613074
35 *607:37 *635:29 0.0112935
36 *611:35 *635:29 0.00244398
*RES
1 *803:wbs_dat_o[5] *635:15 49.6244 
2 *635:15 *635:29 43.88 
3 *635:29 *635:31 15 
4 *635:31 *635:33 280.761 
5 *635:33 wbs_dat_o[5] 22.105 
*END

*D_NET *636 0.166936
*CONN
*P wbs_dat_o[6] O
*I *803:wbs_dat_o[6] O *D memory_macro
*CAP
1 wbs_dat_o[6] 0.000232743
2 *803:wbs_dat_o[6] 0.000653892
3 *636:33 0.00993863
4 *636:31 0.0108538
5 *636:17 0.00847288
6 *636:15 0.00797881
7 *636:15 *639:9 9.59396e-05
8 *636:17 *637:17 0.0253177
9 *636:17 *643:35 0.0026172
10 *636:31 *639:9 4.62843e-05
11 *636:33 *638:9 0.0114048
12 *636:33 *641:11 0.00806787
13 *636:33 *642:17 0.00704017
14 *636:33 *643:11 0.0012343
15 *549:21 *636:33 0.000335033
16 *570:11 *636:33 0.000107392
17 *572:13 *636:33 0.000272589
18 *577:11 *636:33 0.000286277
19 *581:11 *636:15 0.000101859
20 *581:11 *636:31 5.10636e-05
21 *589:11 *636:33 0.000178822
22 *600:21 *636:31 7.15785e-05
23 *604:11 *636:33 0.0012643
24 *606:11 *636:33 0.000137587
25 *606:25 *636:33 0.000619003
26 *610:9 *636:33 0.035408
27 *611:35 *636:33 0.0171749
28 *613:9 *636:33 0.00414352
29 *615:17 *636:17 0.00654741
30 *617:9 *636:33 0.00426635
31 *635:29 *636:33 0.00201562
*RES
1 *803:wbs_dat_o[6] *636:15 27.1878 
2 *636:15 *636:17 48.3131 
3 *636:17 *636:31 42.9215 
4 *636:31 *636:33 81.8869 
5 *636:33 wbs_dat_o[6] 12.2361 
*END

*D_NET *637 0.177337
*CONN
*P wbs_dat_o[7] O
*I *803:wbs_dat_o[7] O *D memory_macro
*CAP
1 wbs_dat_o[7] 0.00176058
2 *803:wbs_dat_o[7] 0.00057409
3 *637:37 0.00850423
4 *637:31 0.00811436
5 *637:17 0.0139589
6 *637:15 0.0131623
7 *637:15 *639:9 9.59396e-05
8 *637:17 *638:17 0.0075386
9 *637:17 *639:9 1.38382e-05
10 *637:17 *643:35 0.00543265
11 *637:31 *639:9 0.000312496
12 *637:31 *641:35 0.000145862
13 *549:11 *637:37 0.00212339
14 *555:15 *637:37 5.56761e-05
15 *570:11 wbs_dat_o[7] 0.000610872
16 *571:9 wbs_dat_o[7] 0.00505885
17 *571:9 *637:37 0.0149006
18 *572:13 wbs_dat_o[7] 0.00502984
19 *572:13 *637:37 0.000167546
20 *581:11 *637:15 0.000101859
21 *588:9 *637:31 0
22 *602:11 *637:37 0.00601096
23 *605:11 *637:37 0.0033401
24 *607:15 *637:37 0.00038178
25 *607:47 *637:17 0.00182757
26 *610:9 *637:37 0.000294151
27 *615:17 *637:17 0.00127029
28 *616:13 *637:17 0.00123028
29 *616:21 *637:31 0.000308888
30 *618:9 *637:37 0.000515714
31 *622:17 *637:17 5.61625e-06
32 *629:13 *637:17 0.0200154
33 *633:25 *637:37 0.000303875
34 *634:11 *637:17 0.0288526
35 *636:17 *637:17 0.0253177
*RES
1 *803:wbs_dat_o[7] *637:15 27.0608 
2 *637:15 *637:17 98.2875 
3 *637:17 *637:31 47.9859 
4 *637:31 *637:37 42.7541 
5 *637:37 wbs_dat_o[7] 26.9173 
*END

*D_NET *638 0.184201
*CONN
*P wbs_dat_o[8] O
*I *803:wbs_dat_o[8] O *D memory_macro
*CAP
1 wbs_dat_o[8] 0.00128747
2 *803:wbs_dat_o[8] 0.000763064
3 *638:17 0.0110298
4 *638:15 0.0105734
5 *638:9 0.0116049
6 *638:7 0.011537
7 wbs_dat_o[8] *803:wbs_we_i 9.14716e-05
8 *638:17 wbs_dat_o[9] 0.000844662
9 *638:17 *803:wbs_we_i 0.000389203
10 *638:17 *639:9 0.000708711
11 *638:17 *641:35 0.0164602
12 *638:17 *643:35 0.00144845
13 *543:17 wbs_dat_o[8] 5.22967e-05
14 *572:29 *638:17 0.00294026
15 *580:11 *638:9 0.000336677
16 *589:11 *638:9 0.00157562
17 *595:17 *638:9 4.62843e-05
18 *604:11 *638:9 0.00144985
19 *605:43 *638:15 0.000204665
20 *607:29 *638:9 9.83919e-05
21 *610:9 *638:9 0.0224566
22 *613:9 *638:9 0.00860208
23 *617:9 *638:9 0.00745085
24 *627:9 *638:9 0.048523
25 *634:11 *638:17 0.00276829
26 *634:25 *638:17 0.00116392
27 *635:29 *638:15 0.000850075
28 *636:33 *638:9 0.0114048
29 *637:17 *638:17 0.0075386
*RES
1 *803:wbs_dat_o[8] *638:7 19.3411 
2 *638:7 *638:9 98.4163 
3 *638:9 *638:15 18.4677 
4 *638:15 *638:17 54.152 
5 *638:17 wbs_dat_o[8] 39.1994 
*END

*D_NET *639 0.209827
*CONN
*P wbs_dat_o[9] O
*I *803:wbs_dat_o[9] O *D memory_macro
*CAP
1 wbs_dat_o[9] 0.0025853
2 *803:wbs_dat_o[9] 0.000109622
3 *639:9 0.023529
4 *639:7 0.0210533
5 wbs_dat_o[9] *803:wbs_we_i 0.000163351
6 wbs_dat_o[9] *641:27 5.22967e-05
7 *639:9 *803:wbs_sel_i[1] 0.00109
8 *639:9 *640:11 0.000114922
9 *639:9 *643:25 4.62843e-05
10 *639:9 *643:35 9.59396e-05
11 wbs_dat_o[16] *639:9 9.28558e-05
12 *803:wbs_adr_i[2] *639:9 0.000350541
13 *803:wbs_adr_i[6] *639:9 4.93791e-05
14 *803:wbs_adr_i[7] *639:9 0.000569223
15 *803:wbs_dat_i[8] *639:9 4.93791e-05
16 *543:17 wbs_dat_o[9] 0.00230048
17 *562:13 *639:9 0.00165273
18 *572:25 *639:9 4.93993e-05
19 *578:11 wbs_dat_o[9] 0.000160413
20 *578:11 *639:9 0.0109441
21 *581:11 *639:9 0.0335146
22 *593:25 *639:9 0.0062253
23 *601:35 wbs_dat_o[9] 0.000554465
24 *601:35 *639:9 0.00636858
25 *605:43 *639:9 0.0011014
26 *607:47 *639:9 9.59396e-05
27 *608:9 wbs_dat_o[9] 0.000341929
28 *608:9 *639:9 0.00130576
29 *616:21 *639:9 0.00330367
30 *619:29 *639:9 0.000185657
31 *622:17 *639:9 0.0377162
32 *622:29 *639:9 0.0253071
33 *625:9 *639:9 0.00870997
34 *630:13 *639:9 0.000109901
35 *633:9 *639:9 0.0023737
36 *634:11 *639:9 0.000206344
37 *634:25 *639:9 0.00201392
38 *635:15 *639:9 0.0132164
39 *636:15 *639:9 9.59396e-05
40 *636:31 *639:9 4.62843e-05
41 *637:15 *639:9 9.59396e-05
42 *637:17 *639:9 1.38382e-05
43 *637:31 *639:9 0.000312496
44 *638:17 wbs_dat_o[9] 0.000844662
45 *638:17 *639:9 0.000708711
*RES
1 *803:wbs_dat_o[9] *639:7 9.48107 
2 *639:7 *639:9 156.033 
3 *639:9 wbs_dat_o[9] 30.0963 
*END

*D_NET *640 0.0692702
*CONN
*P wbs_sel_i[0] I
*I *803:wbs_sel_i[0] I *D memory_macro
*CAP
1 wbs_sel_i[0] 0.000548241
2 *803:wbs_sel_i[0] 0.000247691
3 *640:11 0.00556675
4 *640:9 0.0058673
5 *554:9 *640:9 0
6 *554:11 *640:11 0.0280242
7 *565:19 *640:11 0.00196727
8 *581:11 *640:11 0.00115882
9 *608:9 *640:11 0.025775
10 *639:9 *640:11 0.000114922
*RES
1 wbs_sel_i[0] *640:9 19.9832 
2 *640:9 *640:11 52.5205 
3 *640:11 *803:wbs_sel_i[0] 12.2982 
*END

*D_NET *641 0.0801261
*CONN
*P wbs_sel_i[1] I
*I *803:wbs_sel_i[1] I *D memory_macro
*CAP
1 wbs_sel_i[1] 0.00413849
2 *803:wbs_sel_i[1] 0.000286133
3 *641:35 0.00602976
4 *641:27 0.00695008
5 *641:11 0.00534494
6 *641:11 *642:17 0.0054117
7 *641:11 *643:11 0.00025385
8 *641:11 *644:11 0.000115624
9 *641:11 *645:23 0.000441373
10 wbs_dat_o[9] *641:27 5.22967e-05
11 *548:19 *641:35 0.000661121
12 *553:17 *641:35 5.19953e-05
13 *565:15 *641:11 0
14 *571:9 *641:11 0.000581308
15 *572:13 *641:11 0.00772818
16 *572:29 *641:35 0.00297641
17 *576:15 *641:11 0.00854326
18 *578:9 *641:27 0
19 *587:11 *641:11 0
20 *598:15 *641:11 0.000350685
21 *608:9 *641:27 5.22967e-05
22 *615:17 *641:35 0.00199897
23 *616:21 *803:wbs_sel_i[1] 0.00108338
24 *630:13 *803:wbs_sel_i[1] 0.000233614
25 *633:25 *641:11 0.000415793
26 *634:27 *641:11 0.000660975
27 *636:33 *641:11 0.00806787
28 *637:31 *641:35 0.000145862
29 *638:17 *641:35 0.0164602
30 *639:9 *803:wbs_sel_i[1] 0.00109
*RES
1 wbs_sel_i[1] *641:11 44.857 
2 *641:11 *641:27 43.8946 
3 *641:27 *641:35 48.1739 
4 *641:35 *803:wbs_sel_i[1] 10.8507 
*END

*D_NET *642 0.106299
*CONN
*P wbs_sel_i[2] I
*I *803:wbs_sel_i[2] I *D memory_macro
*CAP
1 wbs_sel_i[2] 0.00365643
2 *803:wbs_sel_i[2] 0.00168511
3 *642:25 0.00681613
4 *642:21 0.00537903
5 *642:17 0.00390443
6 *642:17 *643:11 0.00017653
7 *642:17 *645:23 0.000441373
8 wbs_dat_o[2] *642:17 0
9 *803:wbs_dat_i[0] *642:25 0.00357106
10 *541:27 *642:17 4.93791e-05
11 *555:25 *803:wbs_sel_i[2] 0.00087382
12 *555:25 *642:25 0.00128009
13 *560:11 *803:wbs_sel_i[2] 0.00389034
14 *569:11 *803:wbs_sel_i[2] 0.000964963
15 *570:19 *803:wbs_sel_i[2] 0.000891584
16 *570:19 *642:25 0.000928216
17 *573:11 *803:wbs_sel_i[2] 0.000844308
18 *579:11 *642:25 0.000177338
19 *580:11 *803:wbs_sel_i[2] 0.00240013
20 *580:11 *642:25 0.0197562
21 *586:15 *803:wbs_sel_i[2] 0.000505427
22 *586:15 *642:25 0.000111658
23 *588:21 *803:wbs_sel_i[2] 0.000329105
24 *598:15 *642:17 0.00704454
25 *598:19 *642:25 0.0242275
26 *601:29 *642:17 9.24631e-05
27 *604:11 *642:17 0.00349012
28 *604:11 *642:25 0.000360206
29 *636:33 *642:17 0.00704017
30 *641:11 *642:17 0.0054117
*RES
1 wbs_sel_i[2] *642:17 48.1891 
2 *642:17 *642:21 12.3707 
3 *642:21 *642:25 45.9629 
4 *642:25 *803:wbs_sel_i[2] 23.4401 
*END

*D_NET *643 0.0797822
*CONN
*P wbs_sel_i[3] I
*I *803:wbs_sel_i[3] I *D memory_macro
*CAP
1 wbs_sel_i[3] 0.000324109
2 *803:wbs_sel_i[3] 0.000161397
3 *643:35 0.00542762
4 *643:25 0.00635421
5 *643:11 0.0159503
6 *643:9 0.0151864
7 *803:wbs_dat_i[2] *643:25 0.000117757
8 *541:35 *643:11 2.84357e-05
9 *547:15 *643:11 0.000808471
10 *559:9 *643:25 0
11 *572:29 *643:35 0.00208476
12 *577:11 *643:11 0.000785811
13 *581:11 *643:25 5.10636e-05
14 *581:11 *643:35 0.000101859
15 *588:11 *643:11 0
16 *589:11 *643:11 0.00484676
17 *598:15 *643:11 0.000428928
18 *606:25 *643:25 2.10458e-05
19 *611:35 *643:11 0.0025402
20 *613:9 *643:11 0.00626331
21 *615:17 *643:35 0.00641017
22 *634:27 *643:11 0
23 *635:29 *643:11 0.000584352
24 *635:33 *643:11 0
25 *636:17 *643:35 0.0026172
26 *636:33 *643:11 0.0012343
27 *637:17 *643:35 0.00543265
28 *638:17 *643:35 0.00144845
29 *639:9 *643:25 4.62843e-05
30 *639:9 *643:35 9.59396e-05
31 *641:11 *643:11 0.00025385
32 *642:17 *643:11 0.00017653
*RES
1 wbs_sel_i[3] *643:9 20.4686 
2 *643:9 *643:11 377 
3 *643:11 *643:25 48.816 
4 *643:25 *643:35 46.0365 
5 *643:35 *803:wbs_sel_i[3] 10.1854 
*END

*D_NET *644 0.035468
*CONN
*P wbs_stb_i I
*I *803:wbs_stb_i I *D memory_macro
*CAP
1 wbs_stb_i 0.00636857
2 *803:wbs_stb_i 0.00134419
3 *644:11 0.00771276
4 *803:wbs_stb_i *803:wbs_we_i 0.00155776
5 *542:9 *644:11 0.0132884
6 *543:17 *803:wbs_stb_i 0.000857083
7 *570:11 *644:11 0.000263208
8 *571:9 *644:11 0.00250003
9 *576:15 *644:11 0.000273364
10 *602:11 *644:11 0.00117014
11 *603:27 *644:11 1.29348e-05
12 *605:9 *803:wbs_stb_i 3.87221e-06
13 *641:11 *644:11 0.000115624
*RES
1 wbs_stb_i *644:11 48.251 
2 *644:11 *803:wbs_stb_i 34.6873 
*END

*D_NET *645 0.0441859
*CONN
*P wbs_we_i I
*I *803:wbs_we_i I *D memory_macro
*CAP
1 wbs_we_i 0.00361682
2 *803:wbs_we_i 0.00300687
3 *645:23 0.00357595
4 *645:13 0.0041859
5 wbs_dat_o[5] *645:23 0
6 wbs_dat_o[8] *803:wbs_we_i 9.14716e-05
7 wbs_dat_o[9] *803:wbs_we_i 0.000163351
8 *803:wbs_cyc_i *803:wbs_we_i 0.00143223
9 *803:wbs_stb_i *803:wbs_we_i 0.00155776
10 *542:9 *645:13 0.0123218
11 *542:9 *645:23 0.000841375
12 *543:17 *803:wbs_we_i 0.00115534
13 *576:15 *645:13 0.0109651
14 *638:17 *803:wbs_we_i 0.000389203
15 *641:11 *645:23 0.000441373
16 *642:17 *645:23 0.000441373
*RES
1 wbs_we_i *645:13 42.008 
2 *645:13 *645:23 36.2424 
3 *645:23 *803:wbs_we_i 23.1725 
*END

*D_NET *646 0.411152
*CONN
*I *802:A0[0] I *D DFFRAM512x32
*I *803:mem_addr[0] O *D memory_macro
*CAP
1 *802:A0[0] 0.00102061
2 *803:mem_addr[0] 0.0061631
3 *646:25 0.00656037
4 *646:23 0.00553976
5 *646:21 0.0149149
6 *646:19 0.0149149
7 *646:17 0.00355234
8 *646:15 0.00394696
9 *646:9 0.0234747
10 *646:7 0.0230801
11 *646:5 0.0061631
12 *802:A0[0] *660:11 9.14716e-05
13 *802:A0[0] *677:11 9.14716e-05
14 *646:9 *647:9 0.0532664
15 *646:9 *651:16 0.00602887
16 *646:9 *710:9 0
17 *646:17 *647:17 0.0171679
18 *646:17 *691:11 0.00285456
19 *646:21 *647:21 0.0814174
20 *646:21 *653:21 0.0814174
21 *646:25 *647:25 0.0233557
22 *64:13 *646:25 0.014369
23 *79:18 *646:17 0
24 *139:21 *646:9 0
25 *139:29 *646:17 0.0205606
26 *140:13 *646:25 0.00119991
*RES
1 *803:mem_addr[0] *646:5 135.295 
2 *646:5 *646:7 8 
3 *646:7 *646:9 111.339 
4 *646:9 *646:15 29.6596 
5 *646:15 *646:17 225.496 
6 *646:17 *646:19 15 
7 *646:19 *646:21 1047.24 
8 *646:21 *646:23 8 
9 *646:23 *646:25 49.3864 
10 *646:25 *802:A0[0] 28.2473 
*END

*D_NET *647 0.382625
*CONN
*I *802:A0[1] I *D DFFRAM512x32
*I *803:mem_addr[1] O *D memory_macro
*CAP
1 *802:A0[1] 0.00115566
2 *803:mem_addr[1] 0.0060484
3 *647:25 0.00503476
4 *647:23 0.0038791
5 *647:21 0.030823
6 *647:19 0.030823
7 *647:17 0.00308586
8 *647:15 0.0034342
9 *647:9 0.0119839
10 *647:7 0.0116355
11 *647:5 0.0060484
12 *802:A0[1] *660:11 0.000442907
13 *802:A0[1] *677:11 0.000442907
14 *647:9 *648:9 0.00374894
15 *647:9 *649:9 0.0427711
16 *647:9 *651:16 0.00695246
17 *647:9 *710:9 0
18 *647:17 *648:17 0.0141293
19 *647:17 *690:11 0.00307113
20 *647:21 *653:21 3.35737e-05
21 *647:25 *648:33 0.0200362
22 *64:13 *647:25 8.99145e-06
23 *79:18 *647:17 0
24 *139:21 *647:9 0
25 *139:29 *647:17 2.1819e-05
26 *140:13 *647:25 0.00180609
27 *646:9 *647:9 0.0532664
28 *646:17 *647:17 0.0171679
29 *646:21 *647:21 0.0814174
30 *646:25 *647:25 0.0233557
*RES
1 *803:mem_addr[1] *647:5 136 
2 *647:5 *647:7 8 
3 *647:7 *647:9 104.985 
4 *647:9 *647:15 28.6032 
5 *647:15 *647:17 188.811 
6 *647:17 *647:19 15 
7 *647:19 *647:21 1048.3 
8 *647:21 *647:23 8 
9 *647:23 *647:25 43.1181 
10 *647:25 *802:A0[1] 29.7602 
*END

*D_NET *648 0.39034
*CONN
*I *802:A0[2] I *D DFFRAM512x32
*I *803:mem_addr[2] O *D memory_macro
*CAP
1 *802:A0[2] 0.00105592
2 *803:mem_addr[2] 0.0061084
3 *648:33 0.00449131
4 *648:29 0.014844
5 *648:27 0.011495
6 *648:21 0.00089123
7 *648:19 0.000804839
8 *648:17 0.00398204
9 *648:15 0.00422844
10 *648:9 0.0119105
11 *648:7 0.0116641
12 *648:5 0.0061084
13 *802:A0[2] *660:11 0.000364856
14 *802:A0[2] *677:11 0.000364856
15 *648:9 *649:9 0.0456182
16 *648:9 *651:16 0.00545683
17 *648:9 *652:9 0.0279636
18 *648:17 *649:17 0.00415509
19 *648:17 *690:11 0.00285456
20 *648:21 *651:18 0.000298984
21 *648:21 *660:15 0.0037073
22 *648:21 *701:10 0.00187918
23 *648:29 *660:15 0.0788508
24 *648:29 *675:26 0.0788531
25 *79:18 *648:17 0
26 *139:21 *648:9 0.00444405
27 *140:13 *648:33 0.0200303
28 *647:9 *648:9 0.00374894
29 *647:17 *648:17 0.0141293
30 *647:25 *648:33 0.0200362
*RES
1 *803:mem_addr[2] *648:5 137.408 
2 *648:5 *648:7 8 
3 *648:7 *648:9 97.1712 
4 *648:9 *648:15 26.8425 
5 *648:15 *648:17 154.984 
6 *648:17 *648:19 15 
7 *648:19 *648:21 47.6843 
8 *648:21 *648:27 31.0979 
9 *648:27 *648:29 1001.82 
10 *648:29 *648:33 44.9357 
11 *648:33 *802:A0[2] 29.4615 
*END

*D_NET *649 0.362791
*CONN
*I *802:A0[3] I *D DFFRAM512x32
*I *803:mem_addr[3] O *D memory_macro
*CAP
1 *802:A0[3] 9.23885e-05
2 *803:mem_addr[3] 0.00607195
3 *649:25 0.00578477
4 *649:23 0.00569238
5 *649:21 0.012272
6 *649:19 0.012272
7 *649:17 0.00157054
8 *649:15 0.00182667
9 *649:9 0.0124283
10 *649:7 0.0121722
11 *649:5 0.00607195
12 *649:9 *651:16 0.00830593
13 *649:9 *652:9 0.0055913
14 *649:9 *692:11 0
15 *649:9 *710:9 0
16 *649:17 *689:9 0.000598599
17 *649:21 *650:10 2.12347e-06
18 *649:21 *652:13 0.0830973
19 *649:21 *660:15 5.60006e-05
20 *649:21 *675:26 0.0829047
21 *649:25 *802:A0[6] 0.00185121
22 *649:25 *674:14 0.00536379
23 *649:25 *675:6 0.00169265
24 *649:25 *676:17 0.00315872
25 *79:18 *649:17 0
26 *102:29 *649:25 0.0013693
27 *647:9 *649:9 0.0427711
28 *648:9 *649:9 0.0456182
29 *648:17 *649:17 0.00415509
*RES
1 *803:mem_addr[3] *649:5 136.704 
2 *649:5 *649:7 8 
3 *649:7 *649:9 103.439 
4 *649:9 *649:15 27.1946 
5 *649:15 *649:17 45.8821 
6 *649:17 *649:19 15 
7 *649:19 *649:21 1056.93 
8 *649:21 *649:23 15 
9 *649:23 *649:25 177.853 
10 *649:25 *802:A0[3] 16.8229 
*END

*D_NET *650 0.342747
*CONN
*I *802:A0[4] I *D DFFRAM512x32
*I *803:mem_addr[4] O *D memory_macro
*CAP
1 *802:A0[4] 0.0038376
2 *803:mem_addr[4] 0
3 *650:10 0.0201552
4 *650:8 0.0163176
5 *650:6 0.021601
6 *650:4 0.021601
7 *802:A0[4] *802:A0[5] 0.00546169
8 *802:A0[4] *660:11 0.0138897
9 *802:A0[4] *675:6 0.000149287
10 *802:A0[4] *676:9 0.00112293
11 *650:6 *803:mem_rdata[11] 0.00168635
12 *650:6 *803:mem_rdata[12] 0.0136508
13 *650:6 *803:mem_rdata[14] 9.44899e-05
14 *650:6 *803:mem_rdata[15] 9.44899e-05
15 *650:6 *803:mem_rdata[16] 0.00190771
16 *650:6 *803:mem_rdata[8] 0.000148997
17 *650:6 *651:12 4.93791e-05
18 *650:6 *657:32 0.000993489
19 *650:6 *660:31 4.93791e-05
20 *650:6 *662:31 2.37336e-05
21 *650:6 *682:14 0.00171621
22 *650:6 *684:14 0.00504103
23 *650:6 *723:9 0.00558172
24 *650:10 *652:13 0.000120437
25 *650:10 *654:13 0.0830314
26 *650:10 *657:26 0.0939767
27 *650:10 *660:15 0
28 *650:10 *662:15 0.000159273
29 *650:10 *675:26 0
30 *529:28 *650:6 0.0172294
31 *562:27 *650:6 0.00991471
32 *588:35 *650:6 0.00272543
33 *588:45 *650:6 0.000413554
34 *649:21 *650:10 2.12347e-06
*RES
1 *803:mem_addr[4] *650:4 8 
2 *650:4 *650:6 98.2875 
3 *650:6 *650:8 8 
4 *650:8 *650:10 1200.25 
5 *650:10 *802:A0[4] 45.5583 
*END

*D_NET *651 0.361467
*CONN
*I *802:A0[5] I *D DFFRAM512x32
*I *803:mem_addr[5] O *D memory_macro
*CAP
1 *802:A0[5] 0.00336349
2 *803:mem_addr[5] 0.00763574
3 *651:18 0.0697182
4 *651:16 0.101124
5 *651:12 0.0424049
6 *802:A0[5] *802:A0[6] 0.00850664
7 *802:A0[5] *802:A0[7] 0.000202484
8 *802:A0[5] *660:11 7.71177e-05
9 *802:A0[5] *661:11 5.2621e-05
10 *802:A0[5] *674:6 0.000232945
11 *802:A0[5] *675:6 0.00218725
12 *651:12 *684:14 5.25168e-05
13 *651:16 *652:9 0.00583328
14 *651:16 *653:9 0.00436332
15 *651:16 *654:9 0.00302782
16 *651:16 *689:9 0.001706
17 *651:16 *690:11 0.00149796
18 *651:16 *691:11 0.00118497
19 *651:16 *692:11 0.000769362
20 *651:16 *693:11 0.00033287
21 *651:16 *694:11 0.000272874
22 *651:16 *710:9 0.00476321
23 *651:18 *660:15 0.00934613
24 *651:18 *661:15 0.0167685
25 *651:18 *663:15 0.0146223
26 *651:18 *701:10 0.00845584
27 *802:A0[4] *802:A0[5] 0.00546169
28 *52:21 *651:16 0.0044457
29 *61:13 *651:16 0.0044457
30 *79:10 *651:16 0.00159973
31 *79:32 *651:18 0
32 *90:13 *651:16 0.0044457
33 *128:21 *651:16 0.0044457
34 *138:21 *651:16 0
35 *139:21 *651:16 0.00102758
36 *646:9 *651:16 0.00602887
37 *647:9 *651:16 0.00695246
38 *648:9 *651:16 0.00545683
39 *648:21 *651:18 0.000298984
40 *649:9 *651:16 0.00830593
41 *650:6 *651:12 4.93791e-05
*RES
1 *803:mem_addr[5] *651:12 41.671 
2 *651:12 *651:16 11.6516 
3 *651:16 *651:18 191.598 
4 *651:18 *802:A0[5] 39.6685 
*END

*D_NET *652 0.335671
*CONN
*I *802:A0[6] I *D DFFRAM512x32
*I *803:mem_addr[6] O *D memory_macro
*CAP
1 *802:A0[6] 0.00193512
2 *803:mem_addr[6] 0.00619728
3 *652:13 0.0142657
4 *652:11 0.0123305
5 *652:9 0.00860534
6 *652:7 0.00860534
7 *652:5 0.00619728
8 *802:A0[6] *802:A0[7] 0.00574336
9 *802:A0[6] *664:6 0.000120926
10 *802:A0[6] *674:6 0.00253917
11 *802:A0[6] *676:17 0.000484307
12 *652:9 *653:9 0.0369422
13 *652:9 *653:19 1.4344e-05
14 *652:9 *654:9 0.00018797
15 *652:9 *692:11 0
16 *652:9 *694:11 0.00293415
17 *652:13 *654:13 0.0830314
18 *652:13 *675:26 9.95028e-05
19 *802:A0[5] *802:A0[6] 0.00850664
20 *79:18 *652:9 0.010931
21 *79:32 *652:9 5.31583e-05
22 *139:21 *652:9 0.00148879
23 *648:9 *652:9 0.0279636
24 *649:9 *652:9 0.0055913
25 *649:21 *652:13 0.0830973
26 *649:25 *802:A0[6] 0.00185121
27 *650:10 *652:13 0.000120437
28 *651:16 *652:9 0.00583328
*RES
1 *803:mem_addr[6] *652:5 138.113 
2 *652:5 *652:7 8 
3 *652:7 *652:9 78.9675 
4 *652:9 *652:11 8 
5 *652:11 *652:13 1059.39 
6 *652:13 *802:A0[6] 32.2848 
*END

*D_NET *653 0.311881
*CONN
*I *802:A0[7] I *D DFFRAM512x32
*I *803:mem_addr[7] O *D memory_macro
*CAP
1 *802:A0[7] 0.00175235
2 *803:mem_addr[7] 0.00625254
3 *653:21 0.015558
4 *653:19 0.0146142
5 *653:9 0.00757126
6 *653:7 0.00676265
7 *653:5 0.00625254
8 *802:A0[7] *802:A0[8] 0.000542522
9 *802:A0[7] *657:10 1.91712e-05
10 *802:A0[7] *657:24 0.00209285
11 *802:A0[7] *659:16 0.000108067
12 *802:A0[7] *664:6 0.00242373
13 *802:A0[7] *669:11 0
14 *802:A0[7] *674:14 0.000987493
15 *802:A0[7] *676:17 0.00107997
16 *653:9 *654:9 0.031588
17 *653:19 *654:9 0.000424603
18 *653:19 *692:13 0.00011492
19 *653:19 *695:5 2.9026e-05
20 *653:21 *659:18 0.0828927
21 *653:21 *663:15 0.000100474
22 *802:A0[5] *802:A0[7] 0.000202484
23 *802:A0[6] *802:A0[7] 0.00574336
24 *61:13 *653:19 0
25 *79:10 *653:9 0.00145999
26 *102:29 *802:A0[7] 0.00045828
27 *139:21 *653:9 7.87639e-05
28 *140:13 *802:A0[7] 0
29 *646:21 *653:21 0.0814174
30 *647:21 *653:21 3.35737e-05
31 *651:16 *653:9 0.00436332
32 *652:9 *653:9 0.0369422
33 *652:9 *653:19 1.4344e-05
*RES
1 *803:mem_addr[7] *653:5 138.817 
2 *653:5 *653:7 8 
3 *653:7 *653:9 68.32 
4 *653:9 *653:19 27.5845 
5 *653:19 *653:21 1056.57 
6 *653:21 *802:A0[7] 28.0773 
*END

*D_NET *654 0.28234
*CONN
*I *802:A0[8] I *D DFFRAM512x32
*I *803:mem_addr[8] O *D memory_macro
*CAP
1 *802:A0[8] 0.000895408
2 *803:mem_addr[8] 0.00628436
3 *654:13 0.0131194
4 *654:11 0.012224
5 *654:9 0.00783727
6 *654:7 0.00783727
7 *654:5 0.00628436
8 *802:A0[8] *657:24 0.00282831
9 *802:A0[8] *659:10 0.000690645
10 *802:A0[8] *659:16 0.000549929
11 *802:A0[8] *675:14 0.000328146
12 *802:A0[8] *679:19 0.000378848
13 *802:A0[8] *680:19 0.000227082
14 *654:9 *689:9 0.0207944
15 *802:A0[7] *802:A0[8] 0.000542522
16 *61:13 *654:9 0
17 *79:10 *654:9 0.00018129
18 *79:32 *654:9 4.51815e-05
19 *650:10 *654:13 0.0830314
20 *651:16 *654:9 0.00302782
21 *652:9 *654:9 0.00018797
22 *652:13 *654:13 0.0830314
23 *653:9 *654:9 0.031588
24 *653:19 *654:9 0.000424603
*RES
1 *803:mem_addr[8] *654:5 139.521 
2 *654:5 *654:7 8 
3 *654:7 *654:9 59.304 
4 *654:9 *654:11 8 
5 *654:11 *654:13 1055.87 
6 *654:13 *802:A0[8] 21.5515 
*END

*D_NET *655 0.0415945
*CONN
*I *802:EN0 I *D DFFRAM512x32
*I *803:mem_en O *D memory_macro
*CAP
1 *802:EN0 0.00516399
2 *803:mem_en 0.00115071
3 *655:11 0.00516399
4 *655:9 0.0144826
5 *655:7 0.0156333
6 *655:9 *667:14 0
7 *41:5 *655:9 0
*RES
1 *803:mem_en *655:7 32.0182 
2 *655:7 *655:9 50.4597 
3 *655:9 *655:11 8 
4 *655:11 *802:EN0 116.984 
*END

*D_NET *656 0.173447
*CONN
*I *803:mem_rdata[0] I *D memory_macro
*I *802:Do0[0] O *D DFFRAM512x32
*CAP
1 *803:mem_rdata[0] 0.00173799
2 *802:Do0[0] 0.000442362
3 *656:14 0.0220347
4 *656:12 0.0202967
5 *656:10 0.0471364
6 *656:8 0.0475788
7 *656:8 *685:10 0.00059522
8 *656:10 *687:18 0.0330295
9 *656:14 *667:14 0
10 *102:19 *656:8 0.00059522
*RES
1 *802:Do0[0] *656:8 18.3315 
2 *656:8 *656:10 208.607 
3 *656:10 *656:12 8 
4 *656:12 *656:14 68.8781 
5 *656:14 *803:mem_rdata[0] 46.1039 
*END

*D_NET *657 0.461912
*CONN
*I *803:mem_rdata[10] I *D memory_macro
*I *802:Do0[10] O *D DFFRAM512x32
*CAP
1 *803:mem_rdata[10] 0
2 *802:Do0[10] 0.00469829
3 *657:32 0.00706376
4 *657:30 0.00709126
5 *657:26 0.0140744
6 *657:24 0.0150883
7 *657:10 0.0159843
8 *657:8 0.0196412
9 *657:8 *658:8 0.00233155
10 *657:8 *658:10 0.000150251
11 *657:8 *659:8 0.00185397
12 *657:8 *659:10 0.00230724
13 *657:10 *659:10 0.0716033
14 *657:10 *664:6 0.0640741
15 *657:10 *675:14 0.00109462
16 *657:10 *679:11 0.00405495
17 *657:10 *679:15 0.000904886
18 *657:10 *679:19 0.00127028
19 *657:10 *680:17 0.000582457
20 *657:24 *659:10 0.000154844
21 *657:24 *659:16 0.00108041
22 *657:24 *664:14 0.000400399
23 *657:24 *664:24 9.94696e-06
24 *657:24 *675:22 7.89883e-05
25 *657:26 *662:15 0.0938681
26 *657:32 *803:mem_rdata[11] 0.0169439
27 *657:32 *803:mem_rdata[12] 0.00205091
28 *657:32 *660:31 0.0066397
29 *802:A0[7] *657:10 1.91712e-05
30 *802:A0[7] *657:24 0.00209285
31 *802:A0[8] *657:24 0.00282831
32 *102:21 *657:8 0.00167032
33 *102:21 *657:10 0
34 *102:29 *657:10 0.00478863
35 *102:29 *657:24 0.000445912
36 *140:13 *657:8 0
37 *650:6 *657:32 0.000993489
38 *650:10 *657:26 0.0939767
*RES
1 *802:Do0[10] *657:8 31.38 
2 *657:8 *657:10 135.983 
3 *657:10 *657:24 31.8162 
4 *657:24 *657:26 1197.43 
5 *657:26 *657:30 8.62143 
6 *657:30 *657:32 42.8176 
7 *657:32 *803:mem_rdata[10] 8 
*END

*D_NET *658 0.286257
*CONN
*I *803:mem_rdata[11] I *D memory_macro
*I *802:Do0[11] O *D DFFRAM512x32
*CAP
1 *803:mem_rdata[11] 0.00371102
2 *802:Do0[11] 0.000849426
3 *658:14 0.0673635
4 *658:12 0.0636525
5 *658:10 0.0201364
6 *658:8 0.0209858
7 *803:mem_rdata[11] *803:mem_rdata[12] 0.0135197
8 *658:10 *659:8 0.000670733
9 *658:10 *659:10 0.0429831
10 *658:10 *659:16 0.000119594
11 *658:10 *677:33 0.00137699
12 *658:14 *688:21 0
13 *140:13 *658:8 0
14 *140:13 *658:10 0.029776
15 *650:6 *803:mem_rdata[11] 0.00168635
16 *657:8 *658:8 0.00233155
17 *657:8 *658:10 0.000150251
18 *657:32 *803:mem_rdata[11] 0.0169439
*RES
1 *802:Do0[11] *658:8 12.8291 
2 *658:8 *658:10 151.525 
3 *658:10 *658:12 8 
4 *658:12 *658:14 215.462 
5 *658:14 *803:mem_rdata[11] 48.2989 
*END

*D_NET *659 0.418547
*CONN
*I *803:mem_rdata[12] I *D memory_macro
*I *802:Do0[12] O *D DFFRAM512x32
*CAP
1 *803:mem_rdata[12] 0.00353786
2 *802:Do0[12] 0.000516844
3 *659:18 0.0196552
4 *659:16 0.0173882
5 *659:10 0.0177084
6 *659:8 0.0169544
7 *803:mem_rdata[12] *803:mem_rdata[16] 0.00248159
8 *803:mem_rdata[12] *660:31 0.000192968
9 *803:mem_rdata[12] *701:8 0.00025763
10 *659:10 *677:27 0.00169242
11 *659:10 *677:31 0.000901448
12 *659:10 *677:33 0.00091151
13 *659:10 *679:19 0.000231291
14 *659:10 *680:11 0.00521405
15 *659:10 *680:19 0.00155443
16 *659:16 *677:33 0.000396438
17 *659:18 *663:15 0.0940021
18 *802:A0[7] *659:16 0.000108067
19 *802:A0[8] *659:10 0.000690645
20 *802:A0[8] *659:16 0.000549929
21 *803:mem_rdata[11] *803:mem_rdata[12] 0.0135197
22 *140:13 *659:16 0.000713886
23 *650:6 *803:mem_rdata[12] 0.0136508
24 *653:21 *659:18 0.0828927
25 *657:8 *659:8 0.00185397
26 *657:8 *659:10 0.00230724
27 *657:10 *659:10 0.0716033
28 *657:24 *659:10 0.000154844
29 *657:24 *659:16 0.00108041
30 *657:32 *803:mem_rdata[12] 0.00205091
31 *658:10 *659:8 0.000670733
32 *658:10 *659:10 0.0429831
33 *658:10 *659:16 0.000119594
*RES
1 *802:Do0[12] *659:8 11.7165 
2 *659:8 *659:10 146.888 
3 *659:10 *659:16 13.6056 
4 *659:16 *659:18 1196.02 
5 *659:18 *803:mem_rdata[12] 47.2069 
*END

*D_NET *660 0.372615
*CONN
*I *803:mem_rdata[13] I *D memory_macro
*I *802:Do0[13] O *D DFFRAM512x32
*CAP
1 *803:mem_rdata[13] 0
2 *802:Do0[13] 0.000176495
3 *660:31 0.00432678
4 *660:15 0.0286605
5 *660:13 0.0243337
6 *660:11 0.0176406
7 *660:9 0.0178171
8 *660:11 *661:11 0.0756413
9 *660:11 *676:9 0.000245086
10 *660:11 *677:11 0.00902279
11 *660:15 *661:15 0
12 *660:15 *675:26 0.00593242
13 *660:15 *701:10 0.0220077
14 *660:31 *661:31 0.00889151
15 *660:31 *723:9 9.75158e-06
16 *802:A0[0] *660:11 9.14716e-05
17 *802:A0[1] *660:11 0.000442907
18 *802:A0[2] *660:11 0.000364856
19 *802:A0[4] *660:11 0.0138897
20 *802:A0[5] *660:11 7.71177e-05
21 *803:mem_rdata[12] *660:31 0.000192968
22 *102:21 *660:11 0.0442005
23 *648:21 *660:15 0.0037073
24 *648:29 *660:15 0.0788508
25 *649:21 *660:15 5.60006e-05
26 *650:6 *660:31 4.93791e-05
27 *650:10 *660:15 0
28 *651:18 *660:15 0.00934613
29 *657:32 *660:31 0.0066397
*RES
1 *802:Do0[13] *660:9 11.7596 
2 *660:9 *660:11 149.464 
3 *660:11 *660:13 8 
4 *660:13 *660:15 1203.06 
5 *660:15 *660:31 49.0805 
6 *660:31 *803:mem_rdata[13] 8 
*END

*D_NET *661 0.399694
*CONN
*I *803:mem_rdata[14] I *D memory_macro
*I *802:Do0[14] O *D DFFRAM512x32
*CAP
1 *803:mem_rdata[14] 0.000542885
2 *802:Do0[14] 0.000224226
3 *661:31 0.00381517
4 *661:15 0.0265173
5 *661:13 0.023245
6 *661:11 0.0150293
7 *661:9 0.0152536
8 *661:11 *662:11 0.0748124
9 *661:11 *669:11 0.000358083
10 *661:15 *663:15 0.094481
11 *661:15 *701:10 0.0231639
12 *661:31 *803:mem_rdata[16] 0.000497014
13 *661:31 *662:31 0.00552931
14 *802:A0[5] *661:11 5.2621e-05
15 *36:17 *661:11 0.0147763
16 *650:6 *803:mem_rdata[14] 9.44899e-05
17 *651:18 *661:15 0.0167685
18 *660:11 *661:11 0.0756413
19 *660:15 *661:15 0
20 *660:31 *661:31 0.00889151
*RES
1 *802:Do0[14] *661:9 12.4639 
2 *661:9 *661:11 144.655 
3 *661:11 *661:13 8 
4 *661:13 *661:15 1201.66 
5 *661:15 *661:31 42.6013 
6 *661:31 *803:mem_rdata[14] 25.1293 
*END

*D_NET *662 0.360109
*CONN
*I *803:mem_rdata[15] I *D memory_macro
*I *802:Do0[15] O *D DFFRAM512x32
*CAP
1 *803:mem_rdata[15] 5.1914e-05
2 *802:Do0[15] 0.000260916
3 *662:31 0.00324246
4 *662:15 0.0285182
5 *662:13 0.0253277
6 *662:11 0.0136076
7 *662:9 0.0138685
8 *662:11 *663:11 0.00776048
9 *662:11 *669:11 0.0575004
10 *662:15 *674:18 0
11 *662:15 *695:5 0.0186684
12 *36:17 *662:11 0.0167937
13 *79:32 *662:15 2.11157e-05
14 *650:6 *803:mem_rdata[15] 9.44899e-05
15 *650:6 *662:31 2.37336e-05
16 *650:10 *662:15 0.000159273
17 *657:26 *662:15 0.0938681
18 *661:11 *662:11 0.0748124
19 *661:31 *662:31 0.00552931
*RES
1 *802:Do0[15] *662:9 13.1682 
2 *662:9 *662:11 138.13 
3 *662:11 *662:13 8 
4 *662:13 *662:15 1200.95 
5 *662:15 *662:31 44.2136 
6 *662:31 *803:mem_rdata[15] 16.1848 
*END

*D_NET *663 0.413893
*CONN
*I *803:mem_rdata[16] I *D memory_macro
*I *802:Do0[16] O *D DFFRAM512x32
*CAP
1 *803:mem_rdata[16] 0.000633281
2 *802:Do0[16] 0.000351935
3 *663:15 0.0147823
4 *663:13 0.014149
5 *663:11 0.0138666
6 *663:9 0.0142185
7 *663:11 *665:11 0.00154713
8 *663:11 *666:11 0.063953
9 *663:11 *669:11 0.0582103
10 *803:mem_rdata[12] *803:mem_rdata[16] 0.00248159
11 *36:17 *663:11 0.0163284
12 *650:6 *803:mem_rdata[16] 0.00190771
13 *651:18 *663:15 0.0146223
14 *653:21 *663:15 0.000100474
15 *659:18 *663:15 0.0940021
16 *661:15 *663:15 0.094481
17 *661:31 *803:mem_rdata[16] 0.000497014
18 *662:11 *663:11 0.00776048
*RES
1 *802:Do0[16] *663:9 14.8046 
2 *663:9 *663:11 134.18 
3 *663:11 *663:13 8 
4 *663:13 *663:15 1204.47 
5 *663:15 *803:mem_rdata[16] 20.7787 
*END

*D_NET *664 0.304605
*CONN
*I *803:mem_rdata[17] I *D memory_macro
*I *802:Do0[17] O *D DFFRAM512x32
*CAP
1 *803:mem_rdata[17] 0.0337241
2 *802:Do0[17] 0
3 *664:28 0.0352896
4 *664:24 0.00198824
5 *664:14 0.000773689
6 *664:6 0.0159863
7 *664:4 0.0156353
8 *803:mem_rdata[17] *677:37 0.0883985
9 *664:6 *674:6 0.0361635
10 *664:6 *676:17 0.000451908
11 *664:6 *680:19 0.000227461
12 *664:14 *676:17 0.00219719
13 *664:24 *675:22 7.81607e-05
14 *664:24 *676:23 0
15 *664:24 *680:23 0
16 *664:28 *677:33 0
17 *802:A0[6] *664:6 0.000120926
18 *802:A0[7] *664:6 0.00242373
19 *102:21 *664:6 0.00345011
20 *102:29 *664:6 0.000724642
21 *102:29 *664:14 0.00219264
22 *140:13 *664:28 0.000294933
23 *657:10 *664:6 0.0640741
24 *657:24 *664:14 0.000400399
25 *657:24 *664:24 9.94696e-06
*RES
1 *802:Do0[17] *664:4 8 
2 *664:4 *664:6 121.729 
3 *664:6 *664:14 47.1632 
4 *664:14 *664:24 37.3743 
5 *664:24 *664:28 42.7779 
6 *664:28 *803:mem_rdata[17] 1190.49 
*END

*D_NET *665 0.283586
*CONN
*I *803:mem_rdata[18] I *D memory_macro
*I *802:Do0[18] O *D DFFRAM512x32
*CAP
1 *803:mem_rdata[18] 0.0376548
2 *802:Do0[18] 0.000403581
3 *665:13 0.0376548
4 *665:11 0.0195105
5 *665:9 0.0199141
6 *803:mem_rdata[18] *707:13 0.0721937
7 *665:11 *666:11 0.0684607
8 *665:11 *668:11 0
9 *665:11 *670:11 0
10 *665:11 *671:11 0
11 *665:11 *672:11 0.000538167
12 *665:11 *673:11 0.0141903
13 *36:17 *665:11 0.0115179
14 *37:9 *665:11 0
15 *663:11 *665:11 0.00154713
*RES
1 *802:Do0[18] *665:9 15.9854 
2 *665:9 *665:11 131.69 
3 *665:11 *665:13 8 
4 *665:13 *803:mem_rdata[18] 1204.4 
*END

*D_NET *666 0.281609
*CONN
*I *803:mem_rdata[19] I *D memory_macro
*I *802:Do0[19] O *D DFFRAM512x32
*CAP
1 *803:mem_rdata[19] 0.0522347
2 *802:Do0[19] 0.000374458
3 *666:13 0.0522347
4 *666:11 0.0127216
5 *666:9 0.013096
6 *666:11 *669:11 0.00431494
7 *666:11 *673:11 0.000629503
8 *36:17 *666:11 0.0135893
9 *663:11 *666:11 0.063953
10 *665:11 *666:11 0.0684607
*RES
1 *802:Do0[19] *666:9 15.2811 
2 *666:9 *666:11 132.892 
3 *666:11 *666:13 8 
4 *666:13 *803:mem_rdata[19] 1203.7 
*END

*D_NET *667 0.172793
*CONN
*I *803:mem_rdata[1] I *D memory_macro
*I *802:Do0[1] O *D DFFRAM512x32
*CAP
1 *803:mem_rdata[1] 0.00141193
2 *802:Do0[1] 9.93534e-05
3 *667:14 0.0246112
4 *667:12 0.0231992
5 *667:10 0.0613769
6 *667:8 0.0614763
7 *667:8 *687:16 0.000413554
8 *667:14 *720:11 0
9 *102:19 *667:8 0.000204288
10 *655:9 *667:14 0
11 *656:14 *667:14 0
*RES
1 *802:Do0[1] *667:8 16.7859 
2 *667:8 *667:10 209.877 
3 *667:10 *667:12 8 
4 *667:12 *667:14 78.1517 
5 *667:14 *803:mem_rdata[1] 39.0611 
*END

*D_NET *668 0.285595
*CONN
*I *803:mem_rdata[20] I *D memory_macro
*I *802:Do0[20] O *D DFFRAM512x32
*CAP
1 *803:mem_rdata[20] 0.0399123
2 *802:Do0[20] 0.000674815
3 *668:13 0.0399123
4 *668:11 0.01324
5 *668:9 0.0139148
6 *803:mem_rdata[20] *704:13 0.0383805
7 *668:11 *670:11 0.0669083
8 *37:9 *668:11 0.0726519
9 *665:11 *668:11 0
*RES
1 *802:Do0[20] *668:9 21.6196 
2 *668:9 *668:11 134.094 
3 *668:11 *668:13 8 
4 *668:13 *803:mem_rdata[20] 1210.04 
*END

*D_NET *669 0.278786
*CONN
*I *803:mem_rdata[21] I *D memory_macro
*I *802:Do0[21] O *D DFFRAM512x32
*CAP
1 *803:mem_rdata[21] 0.052139
2 *802:Do0[21] 0.000310704
3 *669:13 0.052139
4 *669:11 0.0169569
5 *669:9 0.0172676
6 *669:11 *673:11 0
7 *802:A0[7] *669:11 0
8 *36:17 *669:11 0.0195893
9 *661:11 *669:11 0.000358083
10 *662:11 *669:11 0.0575004
11 *663:11 *669:11 0.0582103
12 *666:11 *669:11 0.00431494
*RES
1 *802:Do0[21] *669:9 13.8725 
2 *669:9 *669:11 135.296 
3 *669:11 *669:13 8 
4 *669:13 *803:mem_rdata[21] 1202.29 
*END

*D_NET *670 0.277042
*CONN
*I *803:mem_rdata[22] I *D memory_macro
*I *802:Do0[22] O *D DFFRAM512x32
*CAP
1 *803:mem_rdata[22] 0.0539229
2 *802:Do0[22] 0.000657053
3 *670:13 0.0539229
4 *670:11 0.0132907
5 *670:9 0.0139478
6 *670:11 *671:11 0.0710531
7 *37:9 *670:11 0.00333937
8 *665:11 *670:11 0
9 *668:11 *670:11 0.0669083
*RES
1 *802:Do0[22] *670:9 20.9154 
2 *670:9 *670:11 136.498 
3 *670:11 *670:13 8 
4 *670:13 *803:mem_rdata[22] 1209.33 
*END

*D_NET *671 0.282902
*CONN
*I *803:mem_rdata[23] I *D memory_macro
*I *802:Do0[23] O *D DFFRAM512x32
*CAP
1 *803:mem_rdata[23] 0.052412
2 *802:Do0[23] 0.000626203
3 *671:13 0.052412
4 *671:11 0.0134909
5 *671:9 0.0141171
6 *803:mem_rdata[23] *711:13 0
7 *671:11 *672:11 0.0718955
8 *36:17 *671:11 0.00689495
9 *665:11 *671:11 0
10 *670:11 *671:11 0.0710531
*RES
1 *802:Do0[23] *671:9 20.2111 
2 *671:9 *671:11 137.7 
3 *671:11 *671:13 8 
4 *671:13 *803:mem_rdata[23] 1208.63 
*END

*D_NET *672 0.284948
*CONN
*I *803:mem_rdata[24] I *D memory_macro
*I *802:Do0[24] O *D DFFRAM512x32
*CAP
1 *803:mem_rdata[24] 0.0523659
2 *802:Do0[24] 0.000555933
3 *672:13 0.0523659
4 *672:11 0.0137298
5 *672:9 0.0142857
6 *672:11 *673:11 0.0723557
7 *36:17 *672:11 0.00685514
8 *665:11 *672:11 0.000538167
9 *671:11 *672:11 0.0718955
*RES
1 *802:Do0[24] *672:9 18.5539 
2 *672:9 *672:11 139.246 
3 *672:11 *672:13 8 
4 *672:13 *803:mem_rdata[24] 1207.92 
*END

*D_NET *673 0.247593
*CONN
*I *803:mem_rdata[25] I *D memory_macro
*I *802:Do0[25] O *D DFFRAM512x32
*CAP
1 *803:mem_rdata[25] 0.0537632
2 *802:Do0[25] 0.000564502
3 *673:13 0.0537632
4 *673:11 0.0218027
5 *673:9 0.0223672
6 *36:17 *673:11 0.00815724
7 *665:11 *673:11 0.0141903
8 *666:11 *673:11 0.000629503
9 *669:11 *673:11 0
10 *672:11 *673:11 0.0723557
*RES
1 *802:Do0[25] *673:9 18.8025 
2 *673:9 *673:11 140.105 
3 *673:11 *673:13 8 
4 *673:13 *803:mem_rdata[25] 1207.22 
*END

*D_NET *674 0.237501
*CONN
*I *803:mem_rdata[26] I *D memory_macro
*I *802:Do0[26] O *D DFFRAM512x32
*CAP
1 *803:mem_rdata[26] 0.0263121
2 *802:Do0[26] 0
3 *674:24 0.0263121
4 *674:22 0.0169588
5 *674:20 0.0169588
6 *674:18 0.0266226
7 *674:16 0.0266226
8 *674:14 0.000708594
9 *674:12 0.000765197
10 *674:6 0.00742079
11 *674:4 0.00736418
12 *674:6 *675:6 0.0303749
13 *674:14 *676:17 0.00509568
14 *674:18 *676:23 0
15 *674:18 *694:17 0
16 *674:18 *695:5 0
17 *802:A0[5] *674:6 0.000232945
18 *802:A0[6] *674:6 0.00253917
19 *802:A0[7] *674:14 0.000987493
20 *102:21 *674:6 0.00060444
21 *102:29 *674:14 9.29049e-05
22 *649:25 *674:14 0.00536379
23 *662:15 *674:18 0
24 *664:6 *674:6 0.0361635
*RES
1 *802:Do0[26] *674:4 8 
2 *674:4 *674:6 68.7493 
3 *674:6 *674:12 23.6732 
4 *674:12 *674:14 57.3164 
5 *674:14 *674:16 15 
6 *674:16 *674:18 608.296 
7 *674:18 *674:20 15 
8 *674:20 *674:22 346.985 
9 *674:22 *674:24 15 
10 *674:24 *803:mem_rdata[26] 589.031 
*END

*D_NET *675 0.332441
*CONN
*I *803:mem_rdata[27] I *D memory_macro
*I *802:Do0[27] O *D DFFRAM512x32
*CAP
1 *803:mem_rdata[27] 0.00201299
2 *802:Do0[27] 0
3 *675:32 0.00201299
4 *675:30 0.0181148
5 *675:28 0.0181148
6 *675:26 0.0151902
7 *675:24 0.0151902
8 *675:22 0.000518182
9 *675:14 0.00150454
10 *675:12 0.00111757
11 *675:6 0.00644694
12 *675:4 0.00631573
13 *675:6 *676:9 0.0246479
14 *675:14 *679:19 0.00777497
15 *675:22 *677:33 0.000309185
16 *675:22 *679:19 0.000507757
17 *675:22 *680:19 0.000271906
18 *802:A0[4] *675:6 0.000149287
19 *802:A0[5] *675:6 0.00218725
20 *802:A0[8] *675:14 0.000328146
21 *102:21 *675:6 0.000844116
22 *102:29 *675:14 0.00777249
23 *648:29 *675:26 0.0788531
24 *649:21 *675:26 0.0829047
25 *649:25 *675:6 0.00169265
26 *650:10 *675:26 0
27 *652:13 *675:26 9.95028e-05
28 *657:10 *675:14 0.00109462
29 *657:24 *675:22 7.89883e-05
30 *660:15 *675:26 0.00593242
31 *664:24 *675:22 7.81607e-05
32 *674:6 *675:6 0.0303749
*RES
1 *802:Do0[27] *675:4 8 
2 *675:4 *675:6 57.6725 
3 *675:6 *675:12 24.7296 
4 *675:12 *675:14 83.0436 
5 *675:14 *675:22 44.6864 
6 *675:22 *675:24 15 
7 *675:24 *675:26 1149.19 
8 *675:26 *675:28 15 
9 *675:28 *675:30 376.047 
10 *675:30 *675:32 15 
11 *675:32 *803:mem_rdata[27] 45.675 
*END

*D_NET *676 0.223914
*CONN
*I *803:mem_rdata[28] I *D memory_macro
*I *802:Do0[28] O *D DFFRAM512x32
*CAP
1 *803:mem_rdata[28] 0.0511364
2 *802:Do0[28] 6.64561e-05
3 *676:27 0.0511364
4 *676:25 0.0203101
5 *676:23 0.0209249
6 *676:17 0.00244542
7 *676:15 0.00192929
8 *676:9 0.00571326
9 *676:7 0.00568109
10 *676:9 *677:11 0.0191824
11 *676:23 *680:23 0.000987257
12 *802:A0[4] *676:9 0.00112293
13 *802:A0[6] *676:17 0.000484307
14 *802:A0[7] *676:17 0.00107997
15 *102:21 *676:9 0.001139
16 *102:29 *676:17 0.00477867
17 *649:25 *676:17 0.00315872
18 *660:11 *676:9 0.000245086
19 *664:6 *676:17 0.000451908
20 *664:14 *676:17 0.00219719
21 *664:24 *676:23 0
22 *674:14 *676:17 0.00509568
23 *674:18 *676:23 0
24 *675:6 *676:9 0.0246479
*RES
1 *802:Do0[28] *676:7 9.50179 
2 *676:7 *676:9 46.9392 
3 *676:9 *676:15 24.3775 
4 *676:15 *676:17 114.964 
5 *676:17 *676:23 44.935 
6 *676:23 *676:25 422.261 
7 *676:25 *676:27 15 
8 *676:27 *803:mem_rdata[28] 1182.04 
*END

*D_NET *677 0.260508
*CONN
*I *803:mem_rdata[29] I *D memory_macro
*I *802:Do0[29] O *D DFFRAM512x32
*CAP
1 *803:mem_rdata[29] 0.00303414
2 *802:Do0[29] 0.00492012
3 *677:43 0.00303414
4 *677:41 0.020812
5 *677:39 0.020812
6 *677:37 0.0309354
7 *677:35 0.0309354
8 *677:33 0.00464812
9 *677:31 0.00537333
10 *677:27 0.00211466
11 *677:19 0.00169149
12 *677:11 0.00522216
13 *677:19 *680:17 1.09903e-05
14 *677:27 *680:17 0.00146319
15 *677:27 *680:19 0.00049265
16 *677:31 *680:19 0.00112887
17 *677:33 *679:19 0
18 *677:33 *680:19 0.000788457
19 *802:A0[0] *677:11 9.14716e-05
20 *802:A0[1] *677:11 0.000442907
21 *802:A0[2] *677:11 0.000364856
22 *803:mem_rdata[17] *677:37 0.0883985
23 *658:10 *677:33 0.00137699
24 *659:10 *677:27 0.00169242
25 *659:10 *677:31 0.000901448
26 *659:10 *677:33 0.00091151
27 *659:16 *677:33 0.000396438
28 *660:11 *677:11 0.00902279
29 *664:28 *677:33 0
30 *675:22 *677:33 0.000309185
31 *676:9 *677:11 0.0191824
*RES
1 *802:Do0[29] *677:11 46.9004 
2 *677:11 *677:19 27.3396 
3 *677:19 *677:27 43.8004 
4 *677:27 *677:31 22.7857 
5 *677:31 *677:33 103.768 
6 *677:33 *677:35 15 
7 *677:35 *677:37 1126.3 
8 *677:37 *677:39 15 
9 *677:39 *677:41 434.171 
10 *677:41 *677:43 15 
11 *677:43 *803:mem_rdata[29] 67.1557 
*END

*D_NET *678 0.179698
*CONN
*I *803:mem_rdata[2] I *D memory_macro
*I *802:Do0[2] O *D DFFRAM512x32
*CAP
1 *803:mem_rdata[2] 0.00233808
2 *802:Do0[2] 5.92442e-05
3 *678:16 0.00233808
4 *678:14 0.0251558
5 *678:12 0.0251558
6 *678:10 0.0602287
7 *678:8 0.0602879
8 *678:8 *685:10 0.000276818
9 *678:8 *687:12 0.000276818
10 *678:10 *684:10 0
11 *678:14 *721:9 0.00358092
12 *30:17 *678:14 0
*RES
1 *802:Do0[2] *678:8 16.5283 
2 *678:8 *678:10 205.942 
3 *678:10 *678:12 8 
4 *678:12 *678:14 87.0819 
5 *678:14 *678:16 8 
6 *678:16 *803:mem_rdata[2] 52.8939 
*END

*D_NET *679 0.228023
*CONN
*I *803:mem_rdata[30] I *D memory_macro
*I *802:Do0[30] O *D DFFRAM512x32
*CAP
1 *803:mem_rdata[30] 0.00325262
2 *802:Do0[30] 0.000100968
3 *679:29 0.00325262
4 *679:27 0.0209762
5 *679:25 0.0209762
6 *679:23 0.0441259
7 *679:21 0.0441259
8 *679:19 0.00234219
9 *679:17 0.00236748
10 *679:15 0.000667635
11 *679:13 0.000667635
12 *679:11 0.00291481
13 *679:9 0.00299049
14 *679:11 *680:11 0.0127549
15 *679:15 *680:11 0.000380071
16 *679:15 *680:17 0.00266857
17 *679:15 *680:19 0.00074247
18 *679:19 *680:19 0.00939503
19 *802:A0[8] *679:19 0.000378848
20 *61:9 *679:23 0.0223433
21 *102:29 *679:11 0.00864114
22 *102:29 *679:15 0.00470146
23 *102:29 *679:19 0.00251275
24 *657:10 *679:11 0.00405495
25 *657:10 *679:15 0.000904886
26 *657:10 *679:19 0.00127028
27 *659:10 *679:19 0.000231291
28 *675:14 *679:19 0.00777497
29 *675:22 *679:19 0.000507757
30 *677:33 *679:19 0
*RES
1 *802:Do0[30] *679:9 16.8229 
2 *679:9 *679:11 165.227 
3 *679:11 *679:13 0.497143 
4 *679:13 *679:15 50.17 
5 *679:15 *679:17 0.497143 
6 *679:17 *679:19 132.354 
7 *679:19 *679:21 15 
8 *679:21 *679:23 1121.37 
9 *679:23 *679:25 15 
10 *679:25 *679:27 463.234 
11 *679:27 *679:29 15 
12 *679:29 *803:mem_rdata[30] 74.1986 
*END

*D_NET *680 0.204504
*CONN
*I *803:mem_rdata[31] I *D memory_macro
*I *802:Do0[31] O *D DFFRAM512x32
*CAP
1 *803:mem_rdata[31] 0.0507738
2 *802:Do0[31] 9.20241e-05
3 *680:29 0.0507738
4 *680:27 0.0240837
5 *680:25 0.0240837
6 *680:23 0.000810624
7 *680:19 0.00334045
8 *680:17 0.00299442
9 *680:11 0.00451708
10 *680:9 0.00414451
11 *802:A0[8] *680:19 0.000227082
12 *657:10 *680:17 0.000582457
13 *659:10 *680:11 0.00521405
14 *659:10 *680:19 0.00155443
15 *664:6 *680:19 0.000227461
16 *664:24 *680:23 0
17 *675:22 *680:19 0.000271906
18 *676:23 *680:23 0.000987257
19 *677:19 *680:17 1.09903e-05
20 *677:27 *680:17 0.00146319
21 *677:27 *680:19 0.00049265
22 *677:31 *680:19 0.00112887
23 *677:33 *680:19 0.000788457
24 *679:11 *680:11 0.0127549
25 *679:15 *680:11 0.000380071
26 *679:15 *680:17 0.00266857
27 *679:15 *680:19 0.00074247
28 *679:19 *680:19 0.00939503
*RES
1 *802:Do0[31] *680:9 16.3464 
2 *680:9 *680:11 143.55 
3 *680:11 *680:17 29.4868 
4 *680:17 *680:19 114.726 
5 *680:19 *680:23 35.2171 
6 *680:23 *680:25 15 
7 *680:25 *680:27 531.363 
8 *680:27 *680:29 15 
9 *680:29 *803:mem_rdata[31] 1175 
*END

*D_NET *681 0.367651
*CONN
*I *803:mem_rdata[3] I *D memory_macro
*I *802:Do0[3] O *D DFFRAM512x32
*CAP
1 *803:mem_rdata[3] 0
2 *802:Do0[3] 0.00232229
3 *681:27 0.0127174
4 *681:25 0.014049
5 *681:21 0.00144337
6 *681:13 0.0317444
7 *681:11 0.0339549
8 *681:11 *682:8 0.0102228
9 *681:11 *683:13 0.0101809
10 *681:13 *803:cpu_mem_wdata[21] 0
11 *681:13 *683:15 0.0911756
12 *681:25 *683:21 0.00303975
13 *681:27 *682:14 0.0597438
14 *52:27 *681:13 0.00088832
15 *90:11 *681:13 0.000225746
16 *102:9 *681:13 0.0131268
17 *529:28 *681:27 0.0132696
18 *562:27 *681:27 0.0114937
19 *584:19 *681:27 0.0577628
20 *588:35 *681:27 0.000289738
*RES
1 *802:Do0[3] *681:11 36.0967 
2 *681:11 *681:13 1158.17 
3 *681:13 *681:21 31.8229 
4 *681:21 *681:25 47.7611 
5 *681:25 *681:27 113.829 
6 *681:27 *803:mem_rdata[3] 8 
*END

*D_NET *682 0.314544
*CONN
*I *803:mem_rdata[4] I *D memory_macro
*I *802:Do0[4] O *D DFFRAM512x32
*CAP
1 *803:mem_rdata[4] 0
2 *802:Do0[4] 0.00352031
3 *682:14 0.0148233
4 *682:12 0.0148233
5 *682:10 0.0488879
6 *682:8 0.0524082
7 *682:8 *683:13 0.00140447
8 *682:8 *684:8 0.0063302
9 *682:8 *685:10 0.00527657
10 *682:10 *803:cpu_mem_wdata[21] 0
11 *682:10 *748:15 0
12 *682:14 *803:cpu_mem_wdata[22] 0.00389681
13 *682:14 *683:25 0.000173317
14 *682:14 *684:14 0.0598774
15 *682:14 *687:28 0.00314187
16 *682:14 *723:9 0
17 *100:11 *682:10 0.0024852
18 *101:9 *682:10 0.00692383
19 *102:19 *682:8 0.000195374
20 *138:11 *682:10 0.000129003
21 *139:15 *682:10 0.000232206
22 *139:17 *682:10 0.0158966
23 *140:13 *682:8 0
24 *529:28 *682:14 0.000875874
25 *562:27 *682:14 0.000774813
26 *584:19 *682:14 0.00033531
27 *588:35 *682:14 0.000449722
28 *650:6 *682:14 0.00171621
29 *681:11 *682:8 0.0102228
30 *681:27 *682:14 0.0597438
*RES
1 *802:Do0[4] *682:8 42.1595 
2 *682:8 *682:10 1198.84 
3 *682:10 *682:12 8 
4 *682:12 *682:14 128.169 
5 *682:14 *803:mem_rdata[4] 8 
*END

*D_NET *683 0.364403
*CONN
*I *803:mem_rdata[5] I *D memory_macro
*I *802:Do0[5] O *D DFFRAM512x32
*CAP
1 *803:mem_rdata[5] 0
2 *802:Do0[5] 0.00563279
3 *683:25 0.0242507
4 *683:23 0.0242507
5 *683:21 0.00162668
6 *683:15 0.0333162
7 *683:13 0.0373223
8 *683:13 *684:8 0.000764885
9 *683:21 *803:cpu_mem_wdata[21] 0
10 *683:25 *803:cpu_mem_wdata[22] 0.00321696
11 *683:25 *684:14 0.0650375
12 *683:25 *687:28 0.00314162
13 *683:25 *687:30 0.0278682
14 *683:25 *749:11 0.00211988
15 *683:25 *750:11 0.00156007
16 *683:25 *751:11 0.00291285
17 *683:25 *754:19 0.00256417
18 *683:25 *754:29 0.010044
19 *52:27 *683:15 0.00088832
20 *102:9 *683:15 0.00700951
21 *102:21 *683:13 0.00490114
22 *681:11 *683:13 0.0101809
23 *681:13 *683:15 0.0911756
24 *681:25 *683:21 0.00303975
25 *682:8 *683:13 0.00140447
26 *682:14 *683:25 0.000173317
*RES
1 *802:Do0[5] *683:13 48.6792 
2 *683:13 *683:15 1159.4 
3 *683:15 *683:21 43.645 
4 *683:21 *683:23 8 
5 *683:23 *683:25 136.67 
6 *683:25 *803:mem_rdata[5] 8 
*END

*D_NET *684 0.316365
*CONN
*I *803:mem_rdata[6] I *D memory_macro
*I *802:Do0[6] O *D DFFRAM512x32
*CAP
1 *803:mem_rdata[6] 0
2 *802:Do0[6] 0.00270028
3 *684:14 0.0158465
4 *684:12 0.0158465
5 *684:10 0.0638991
6 *684:8 0.0665994
7 *684:8 *685:10 0.0119604
8 *684:14 *687:30 0.00174642
9 *102:21 *684:8 0.000663216
10 *650:6 *684:14 0.00504103
11 *651:12 *684:14 5.25168e-05
12 *678:10 *684:10 0
13 *682:8 *684:8 0.0063302
14 *682:14 *684:14 0.0598774
15 *683:13 *684:8 0.000764885
16 *683:25 *684:14 0.0650375
*RES
1 *802:Do0[6] *684:8 38.6819 
2 *684:8 *684:10 216.097 
3 *684:10 *684:12 8 
4 *684:12 *684:14 133.622 
5 *684:14 *803:mem_rdata[6] 8 
*END

*D_NET *685 0.319497
*CONN
*I *803:mem_rdata[7] I *D memory_macro
*I *802:Do0[7] O *D DFFRAM512x32
*CAP
1 *803:mem_rdata[7] 0.000457213
2 *802:Do0[7] 0.00461038
3 *685:18 0.0390405
4 *685:16 0.0385833
5 *685:14 0.0533398
6 *685:12 0.0533398
7 *685:10 0.00461038
8 *685:10 *687:12 0.0137382
9 *685:10 *687:16 0.00308206
10 *685:18 *803:cpu_mem_wdata[23] 0.00546333
11 *685:18 *723:9 0
12 *685:18 *754:19 0
13 *685:18 *757:9 0.00526014
14 *685:18 *758:9 0.0136281
15 *685:18 *790:17 0.0337682
16 *64:17 *685:14 0.0225652
17 *102:19 *685:10 0.000168186
18 *102:21 *685:10 0.00038105
19 *128:19 *685:14 0
20 *531:14 *685:18 0
21 *545:19 *685:18 0
22 *546:19 *685:18 0
23 *546:25 *685:18 0
24 *552:21 *685:18 0.00935174
25 *609:17 *685:18 0
26 *656:8 *685:10 0.00059522
27 *678:8 *685:10 0.000276818
28 *682:8 *685:10 0.00527657
29 *684:8 *685:10 0.0119604
*RES
1 *802:Do0[7] *685:10 46.5485 
2 *685:10 *685:12 8 
3 *685:12 *685:14 213.939 
4 *685:14 *685:16 8 
5 *685:16 *685:18 153.714 
6 *685:18 *803:mem_rdata[7] 17.9325 
*END

*D_NET *686 0.319401
*CONN
*I *803:mem_rdata[8] I *D memory_macro
*I *802:Do0[8] O *D DFFRAM512x32
*CAP
1 *803:mem_rdata[8] 0.0654373
2 *802:Do0[8] 0.00132906
3 *686:18 0.137536
4 *686:16 0.0766451
5 *686:12 0.00587588
6 *803:mem_rdata[8] *687:30 0.000243434
7 *803:mem_rdata[8] *752:25 0.00487557
8 *803:mem_rdata[8] *753:25 0.00380902
9 *803:mem_rdata[8] *754:29 0.00263051
10 *686:12 *687:12 0.00268917
11 *686:16 *687:12 0.00404873
12 *686:18 *687:18 0
13 *102:19 *686:16 0.0071705
14 *102:21 *686:12 0.000359666
15 *140:13 *686:16 0.00660211
16 *650:6 *803:mem_rdata[8] 0.000148997
*RES
1 *802:Do0[8] *686:12 29.7288 
2 *686:12 *686:16 41.7157 
3 *686:16 *686:18 216.097 
4 *686:18 *803:mem_rdata[8] 38.322 
*END

*D_NET *687 0.296856
*CONN
*I *803:mem_rdata[9] I *D memory_macro
*I *802:Do0[9] O *D DFFRAM512x32
*CAP
1 *803:mem_rdata[9] 0.000108967
2 *802:Do0[9] 0.00613807
3 *687:30 0.0386507
4 *687:28 0.0393669
5 *687:18 0.0507289
6 *687:16 0.050848
7 *687:12 0.00708221
8 *687:30 *751:9 0.000221587
9 *687:30 *751:11 0.00509749
10 *687:30 *754:19 0.000982986
11 *803:mem_rdata[8] *687:30 0.000243434
12 *102:19 *687:12 0.00345237
13 *102:19 *687:16 0.000758215
14 *102:21 *687:12 0
15 *140:13 *687:12 0
16 *529:28 *687:30 0
17 *656:10 *687:18 0.0330295
18 *667:8 *687:16 0.000413554
19 *678:8 *687:12 0.000276818
20 *682:14 *687:28 0.00314187
21 *683:25 *687:28 0.00314162
22 *683:25 *687:30 0.0278682
23 *684:14 *687:30 0.00174642
24 *685:10 *687:12 0.0137382
25 *685:10 *687:16 0.00308206
26 *686:12 *687:12 0.00268917
27 *686:16 *687:12 0.00404873
28 *686:18 *687:18 0
*RES
1 *802:Do0[9] *687:12 47.8888 
2 *687:12 *687:16 13.8949 
3 *687:16 *687:18 215.97 
4 *687:18 *687:28 38.0491 
5 *687:28 *687:30 887.255 
6 *687:30 *803:mem_rdata[9] 17.2993 
*END

*D_NET *688 0.108009
*CONN
*I *802:Di0[0] I *D DFFRAM512x32
*I *803:mem_wdata[0] O *D memory_macro
*CAP
1 *802:Di0[0] 0.000484523
2 *803:mem_wdata[0] 0.00550125
3 *688:21 0.00287092
4 *688:9 0.0435201
5 *688:7 0.0411337
6 *688:5 0.00550125
7 *688:9 *693:11 0.00597381
8 *688:9 *710:9 0
9 *688:21 *693:13 0.00104491
10 *688:21 *694:13 0.00104491
11 *63:13 *688:21 0.000466666
12 *137:15 *688:21 0.000466666
13 *658:14 *688:21 0
*RES
1 *803:mem_wdata[0] *688:5 124.027 
2 *688:5 *688:7 8 
3 *688:7 *688:9 141.607 
4 *688:9 *688:21 43.2366 
5 *688:21 *802:Di0[0] 8.63467 
*END

*D_NET *689 0.122785
*CONN
*I *802:Di0[10] I *D DFFRAM512x32
*I *803:mem_wdata[10] O *D memory_macro
*CAP
1 *802:Di0[10] 0.000244279
2 *803:mem_wdata[10] 0.00634561
3 *689:13 0.00539236
4 *689:11 0.00514808
5 *689:9 0.0044374
6 *689:5 0.010783
7 *689:9 *690:11 0.0171597
8 *689:13 *802:Di0[3] 0.00161071
9 *689:13 *802:Di0[6] 0.000105658
10 *689:13 *802:Di0[8] 0.000105658
11 *689:13 *690:13 0.00127655
12 *689:13 *695:5 0
13 *689:13 *718:13 0.0222051
14 *689:13 *719:13 0.0248716
15 *61:13 *689:9 0
16 *649:17 *689:9 0.000598599
17 *651:16 *689:9 0.001706
18 *654:9 *689:9 0.0207944
*RES
1 *803:mem_wdata[10] *689:5 140.225 
2 *689:5 *689:9 46.5243 
3 *689:9 *689:11 8 
4 *689:11 *689:13 347.358 
5 *689:13 *802:Di0[10] 8.63467 
*END

*D_NET *690 0.126998
*CONN
*I *802:Di0[11] I *D DFFRAM512x32
*I *803:mem_wdata[11] O *D memory_macro
*CAP
1 *802:Di0[11] 0.000179071
2 *803:mem_wdata[11] 0.00637474
3 *690:13 0.0052085
4 *690:11 0.00879804
5 *690:5 0.0101434
6 *690:11 *691:11 0.0136487
7 *690:13 *691:13 0.0298758
8 *690:13 *694:13 1.66113e-05
9 *690:13 *695:5 0
10 *690:13 *714:13 0.00207459
11 *690:13 *719:13 0.0248186
12 *61:13 *690:11 0
13 *647:17 *690:11 0.00307113
14 *648:17 *690:11 0.00285456
15 *651:16 *690:11 0.00149796
16 *689:9 *690:11 0.0171597
17 *689:13 *690:13 0.00127655
*RES
1 *803:mem_wdata[11] *690:5 140.93 
2 *690:5 *690:11 47.8267 
3 *690:11 *690:13 380.459 
4 *690:13 *802:Di0[11] 8.3808 
*END

*D_NET *691 0.118452
*CONN
*I *802:Di0[12] I *D DFFRAM512x32
*I *803:mem_wdata[12] O *D memory_macro
*CAP
1 *802:Di0[12] 0.00028173
2 *803:mem_wdata[12] 0.00641696
3 *691:13 0.0055294
4 *691:11 0.0102013
5 *691:5 0.0113706
6 *802:Di0[12] *692:21 0.000105658
7 *691:13 *802:Di0[1] 0.000126773
8 *691:13 *692:21 0.0280473
9 *691:13 *694:13 0.00368832
10 *691:13 *694:17 0.000272923
11 *691:13 *714:13 0.00236751
12 *61:13 *691:11 0
13 *139:29 *691:11 0.0024797
14 *646:17 *691:11 0.00285456
15 *651:16 *691:11 0.00118497
16 *690:11 *691:11 0.0136487
17 *690:13 *691:13 0.0298758
*RES
1 *803:mem_wdata[12] *691:5 141.634 
2 *691:5 *691:11 41.2149 
3 *691:11 *691:13 410.744 
4 *691:13 *802:Di0[12] 8.63467 
*END

*D_NET *692 0.112809
*CONN
*I *802:Di0[13] I *D DFFRAM512x32
*I *803:mem_wdata[13] O *D memory_macro
*CAP
1 *802:Di0[13] 0.000145168
2 *803:mem_wdata[13] 0.00588991
3 *692:21 0.00560206
4 *692:19 0.00576628
5 *692:13 0.0022039
6 *692:11 0.00619524
7 *692:5 0.0101906
8 *692:5 *802:WE0[3] 0
9 *692:11 *694:11 0
10 *692:11 *710:9 0.0101558
11 *692:13 *802:Di0[2] 0.000506408
12 *692:13 *695:5 0
13 *692:13 *717:13 0.00503469
14 *692:19 *802:Di0[1] 6.17437e-06
15 *692:21 *802:Di0[1] 0.000101218
16 *692:21 *694:17 0.0303368
17 *692:21 *714:13 0.00163725
18 *802:Di0[12] *692:21 0.000105658
19 *649:9 *692:11 0
20 *651:16 *692:11 0.000769362
21 *652:9 *692:11 0
22 *653:19 *692:13 0.00011492
23 *691:13 *692:21 0.0280473
*RES
1 *803:mem_wdata[13] *692:5 131.774 
2 *692:5 *692:11 35.2901 
3 *692:11 *692:13 64.7632 
4 *692:13 *692:19 33.9564 
5 *692:19 *692:21 389.791 
6 *692:21 *802:Di0[13] 8.3808 
*END

*D_NET *693 0.0900721
*CONN
*I *802:Di0[14] I *D DFFRAM512x32
*I *803:mem_wdata[14] O *D memory_macro
*CAP
1 *802:Di0[14] 0.000314943
2 *803:mem_wdata[14] 0.00555701
3 *693:13 0.0133056
4 *693:11 0.0156947
5 *693:5 0.008261
6 *802:Di0[14] *694:17 0.000211315
7 *693:11 *710:9 0
8 *693:13 *694:13 0.00139158
9 *693:13 *694:17 0.0333327
10 *693:13 *715:13 0.00465162
11 *693:13 *719:13 0
12 *651:16 *693:11 0.00033287
13 *688:9 *693:11 0.00597381
14 *688:21 *693:13 0.00104491
*RES
1 *803:mem_wdata[14] *693:5 124.731 
2 *693:5 *693:11 27.9056 
3 *693:11 *693:13 492.441 
4 *693:13 *802:Di0[14] 8.63467 
*END

*D_NET *694 0.107767
*CONN
*I *802:Di0[15] I *D DFFRAM512x32
*I *803:mem_wdata[15] O *D memory_macro
*CAP
1 *802:Di0[15] 0.000250598
2 *803:mem_wdata[15] 0.00613779
3 *694:17 0.00824354
4 *694:15 0.00802044
5 *694:13 0.00105234
6 *694:11 0.00237084
7 *694:5 0.00748379
8 *694:13 *714:13 0.0006199
9 *694:13 *719:13 6.25172e-05
10 *694:17 *802:Di0[1] 2.27289e-05
11 *802:Di0[14] *694:17 0.000211315
12 *651:16 *694:11 0.000272874
13 *652:9 *694:11 0.00293415
14 *674:18 *694:17 0
15 *688:21 *694:13 0.00104491
16 *690:13 *694:13 1.66113e-05
17 *691:13 *694:13 0.00368832
18 *691:13 *694:17 0.000272923
19 *692:11 *694:11 0
20 *692:21 *694:17 0.0303368
21 *693:13 *694:13 0.00139158
22 *693:13 *694:17 0.0333327
*RES
1 *803:mem_wdata[15] *694:5 137.408 
2 *694:5 *694:11 21.5515 
3 *694:11 *694:13 51.5579 
4 *694:13 *694:15 0.621429 
5 *694:15 *694:17 461.452 
6 *694:17 *802:Di0[15] 8.50773 
*END

*D_NET *695 0.0633909
*CONN
*I *802:Di0[16] I *D DFFRAM512x32
*I *803:mem_wdata[16] O *D memory_macro
*CAP
1 *802:Di0[16] 0.000201536
2 *803:mem_wdata[16] 0.0217946
3 *695:5 0.0219962
4 *695:5 *802:Di0[2] 0.000690167
5 *695:5 *716:13 0
6 *695:5 *717:13 0
7 *695:5 *718:13 0
8 *79:32 *695:5 1.09886e-05
9 *653:19 *695:5 2.9026e-05
10 *662:15 *695:5 0.0186684
11 *674:18 *695:5 0
12 *689:13 *695:5 0
13 *690:13 *695:5 0
14 *692:13 *695:5 0
*RES
1 *803:mem_wdata[16] *695:5 684.638 
2 *695:5 *802:Di0[16] 8.672 
*END

*D_NET *696 0.0669141
*CONN
*I *802:Di0[17] I *D DFFRAM512x32
*I *803:mem_wdata[17] O *D memory_macro
*CAP
1 *802:Di0[17] 0.00235361
2 *803:mem_wdata[17] 0.0311034
3 *696:5 0.033457
4 *137:19 *696:5 0
*RES
1 *803:mem_wdata[17] *696:5 717.035 
2 *696:5 *802:Di0[17] 15.1979 
*END

*D_NET *697 0.0733592
*CONN
*I *802:Di0[18] I *D DFFRAM512x32
*I *803:mem_wdata[18] O *D memory_macro
*CAP
1 *802:Di0[18] 0.00418171
2 *803:mem_wdata[18] 0.0324979
3 *697:5 0.0366796
*RES
1 *803:mem_wdata[18] *697:5 749.432 
2 *697:5 *802:Di0[18] 21.7237 
*END

*D_NET *698 0.0801686
*CONN
*I *802:Di0[19] I *D DFFRAM512x32
*I *803:mem_wdata[19] O *D memory_macro
*CAP
1 *802:Di0[19] 0.00618614
2 *803:mem_wdata[19] 0.0338982
3 *698:5 0.0400843
*RES
1 *803:mem_wdata[19] *698:5 781.83 
2 *698:5 *802:Di0[19] 28.2496 
*END

*D_NET *699 0.143468
*CONN
*I *802:Di0[1] I *D DFFRAM512x32
*I *803:mem_wdata[1] O *D memory_macro
*CAP
1 *802:Di0[1] 0.000598915
2 *803:mem_wdata[1] 0.00429768
3 *699:13 0.00375851
4 *699:11 0.0031596
5 *699:9 0.0257051
6 *699:7 0.0257051
7 *699:5 0.00429768
8 *802:Di0[1] *714:13 0.000325813
9 *699:5 *802:WE0[0] 0
10 *699:13 *715:13 0.00763188
11 *106:13 *699:9 0.0677313
12 *530:14 *699:9 0
13 *691:13 *802:Di0[1] 0.000126773
14 *692:19 *802:Di0[1] 6.17437e-06
15 *692:21 *802:Di0[1] 0.000101218
16 *694:17 *802:Di0[1] 2.27289e-05
*RES
1 *803:mem_wdata[1] *699:5 96.5596 
2 *699:5 *699:7 8 
3 *699:7 *699:9 129.028 
4 *699:9 *699:11 8 
5 *699:11 *699:13 99.2732 
6 *699:13 *802:Di0[1] 41.9593 
*END

*D_NET *700 0.087242
*CONN
*I *802:Di0[20] I *D DFFRAM512x32
*I *803:mem_wdata[20] O *D memory_macro
*CAP
1 *802:Di0[20] 0.00832664
2 *803:mem_wdata[20] 0.0352943
3 *700:5 0.043621
*RES
1 *803:mem_wdata[20] *700:5 814.227 
2 *700:5 *802:Di0[20] 34.7755 
*END

*D_NET *701 0.109198
*CONN
*I *802:Di0[21] I *D DFFRAM512x32
*I *803:mem_wdata[21] O *D memory_macro
*CAP
1 *802:Di0[21] 0.000645162
2 *803:mem_wdata[21] 0.00902933
3 *701:10 0.0176726
4 *701:8 0.0260567
5 *803:mem_rdata[12] *701:8 0.00025763
6 *562:37 *701:8 2.99798e-05
7 *648:21 *701:10 0.00187918
8 *651:18 *701:10 0.00845584
9 *660:15 *701:10 0.0220077
10 *661:15 *701:10 0.0231639
*RES
1 *803:mem_wdata[21] *701:8 47.4832 
2 *701:8 *701:10 849.514 
3 *701:10 *802:Di0[21] 9.87413 
*END

*D_NET *702 0.10064
*CONN
*I *802:Di0[22] I *D DFFRAM512x32
*I *803:mem_wdata[22] O *D memory_macro
*CAP
1 *802:Di0[22] 0.0122274
2 *803:mem_wdata[22] 0.0380925
3 *702:5 0.0503199
*RES
1 *803:mem_wdata[22] *702:5 879.021 
2 *702:5 *802:Di0[22] 47.8272 
*END

*D_NET *703 0.108016
*CONN
*I *802:Di0[23] I *D DFFRAM512x32
*I *803:mem_wdata[23] O *D memory_macro
*CAP
1 *802:Di0[23] 0.0124142
2 *803:mem_wdata[23] 0.00146031
3 *703:10 0.0519685
4 *703:8 0.0410146
5 *529:28 *703:8 0.00115838
*RES
1 *803:mem_wdata[23] *703:8 21.0363 
2 *703:8 *703:10 912.195 
3 *703:10 *802:Di0[23] 49.3728 
*END

*D_NET *704 0.127336
*CONN
*I *802:Di0[24] I *D DFFRAM512x32
*I *803:mem_wdata[24] O *D memory_macro
*CAP
1 *802:Di0[24] 0.00724296
2 *803:mem_wdata[24] 0.0093738
3 *704:13 0.0351042
4 *704:11 0.0278612
5 *704:9 0.0093738
6 *803:mem_rdata[20] *704:13 0.0383805
7 *531:14 *704:9 0
*RES
1 *803:mem_wdata[24] *704:9 47.5266 
2 *704:9 *704:11 8 
3 *704:11 *704:13 934.028 
4 *704:13 *802:Di0[24] 31.3408 
*END

*D_NET *705 0.121102
*CONN
*I *802:Di0[25] I *D DFFRAM512x32
*I *803:mem_wdata[25] O *D memory_macro
*CAP
1 *802:Di0[25] 0.0176673
2 *803:mem_wdata[25] 0.000444583
3 *705:12 0.0176673
4 *705:10 0.0423035
5 *705:8 0.0427481
6 *529:28 *705:8 0.000271585
*RES
1 *803:mem_wdata[25] *705:8 17.344 
2 *705:8 *705:10 976.285 
3 *705:10 *705:12 8 
4 *705:12 *802:Di0[25] 58.1168 
*END

*D_NET *706 0.127126
*CONN
*I *802:Di0[26] I *D DFFRAM512x32
*I *803:mem_wdata[26] O *D memory_macro
*CAP
1 *802:Di0[26] 0.0193512
2 *803:mem_wdata[26] 0.000375238
3 *706:12 0.0193512
4 *706:10 0.043692
5 *706:8 0.0440672
6 *529:28 *706:8 0.000288936
*RES
1 *803:mem_wdata[26] *706:8 17.4299 
2 *706:8 *706:10 1008.68 
3 *706:10 *706:12 8 
4 *706:12 *802:Di0[26] 64.5568 
*END

*D_NET *707 0.177637
*CONN
*I *802:Di0[27] I *D DFFRAM512x32
*I *803:mem_wdata[27] O *D memory_macro
*CAP
1 *802:Di0[27] 0.00322626
2 *803:mem_wdata[27] 0.0054637
3 *707:13 0.0282884
4 *707:11 0.0250621
5 *707:9 0.0189698
6 *707:7 0.0189698
7 *707:5 0.0054637
8 *803:mem_rdata[18] *707:13 0.0721937
*RES
1 *803:mem_wdata[27] *707:5 124.027 
2 *707:5 *707:7 8 
3 *707:7 *707:9 61.9659 
4 *707:9 *707:11 8 
5 *707:11 *707:13 917.125 
6 *707:13 *802:Di0[27] 18.5467 
*END

*D_NET *708 0.14086
*CONN
*I *802:Di0[28] I *D DFFRAM512x32
*I *803:mem_wdata[28] O *D memory_macro
*CAP
1 *802:Di0[28] 0.0164731
2 *803:mem_wdata[28] 0.00787651
3 *708:15 0.0164731
4 *708:13 0.0460803
5 *708:11 0.0460803
6 *708:9 0.00787651
7 *531:14 *708:9 0
*RES
1 *803:mem_wdata[28] *708:9 42.7181 
2 *708:9 *708:11 8 
3 *708:11 *708:13 1063.62 
4 *708:13 *708:15 8 
5 *708:15 *802:Di0[28] 54.2528 
*END

*D_NET *709 0.147343
*CONN
*I *802:Di0[29] I *D DFFRAM512x32
*I *803:mem_wdata[29] O *D memory_macro
*CAP
1 *802:Di0[29] 0.0244932
2 *803:mem_wdata[29] 0.00184449
3 *709:15 0.0244932
4 *709:13 0.0473339
5 *709:11 0.0491784
6 *531:14 *709:11 0
*RES
1 *803:mem_wdata[29] *709:11 32.3088 
2 *709:11 *709:13 1093.9 
3 *709:13 *709:15 8 
4 *709:15 *802:Di0[29] 81.3008 
*END

*D_NET *710 0.113827
*CONN
*I *802:Di0[2] I *D DFFRAM512x32
*I *803:mem_wdata[2] O *D memory_macro
*CAP
1 *802:Di0[2] 0.00439076
2 *803:mem_wdata[2] 0.00579668
3 *710:9 0.0375631
4 *710:7 0.0331723
5 *710:5 0.00579668
6 *802:Di0[2] *802:Di0[3] 0.00744013
7 *802:Di0[2] *716:13 0.00114682
8 *802:Di0[2] *717:13 0.000985257
9 *802:Di0[2] *718:13 0.00141921
10 *79:32 *802:Di0[2] 0
11 *646:9 *710:9 0
12 *647:9 *710:9 0
13 *649:9 *710:9 0
14 *651:16 *710:9 0.00476321
15 *688:9 *710:9 0
16 *692:11 *710:9 0.0101558
17 *692:13 *802:Di0[2] 0.000506408
18 *693:11 *710:9 0
19 *695:5 *802:Di0[2] 0.000690167
*RES
1 *803:mem_wdata[2] *710:5 131.07 
2 *710:5 *710:7 8 
3 *710:7 *710:9 116.878 
4 *710:9 *802:Di0[2] 34.0805 
*END

*D_NET *711 0.153879
*CONN
*I *802:Di0[30] I *D DFFRAM512x32
*I *803:mem_wdata[30] O *D memory_macro
*CAP
1 *802:Di0[30] 0.0127051
2 *803:mem_wdata[30] 0.00604893
3 *711:15 0.0127051
4 *711:13 0.0432288
5 *711:11 0.0432288
6 *711:9 0.0149568
7 *711:7 0.0149568
8 *711:5 0.00604893
9 *803:mem_rdata[23] *711:13 0
*RES
1 *803:mem_wdata[30] *711:5 138.113 
2 *711:5 *711:7 8 
3 *711:7 *711:9 49.4293 
4 *711:9 *711:11 8 
5 *711:11 *711:13 1000.23 
6 *711:13 *711:15 8 
7 *711:15 *802:Di0[30] 42.6608 
*END

*D_NET *712 0.161434
*CONN
*I *802:Di0[31] I *D DFFRAM512x32
*I *803:mem_wdata[31] O *D memory_macro
*CAP
1 *802:Di0[31] 0.0115799
2 *803:mem_wdata[31] 0.00136701
3 *712:13 0.0609451
4 *712:11 0.0493652
5 *712:9 0.0184047
6 *712:7 0.0197718
*RES
1 *803:mem_wdata[31] *712:7 39.0611 
2 *712:7 *712:9 61.1072 
3 *712:9 *712:11 8 
4 *712:11 *712:13 1139.68 
5 *712:13 *802:Di0[31] 45.5088 
*END

*D_NET *713 0.141204
*CONN
*I *802:Di0[3] I *D DFFRAM512x32
*I *803:mem_wdata[3] O *D memory_macro
*CAP
1 *802:Di0[3] 0.00557833
2 *803:mem_wdata[3] 0.00360569
3 *713:9 0.0258138
4 *713:7 0.0202355
5 *713:5 0.00360569
6 *802:Di0[3] *714:13 0.0136057
7 *802:Di0[3] *716:13 0.000592391
8 *802:Di0[3] *717:13 0.000485564
9 *802:Di0[3] *718:13 0.000649775
10 *802:Di0[3] *719:13 0.00184712
11 io_out[1] *713:9 0
12 *802:Di0[2] *802:Di0[3] 0.00744013
13 *68:13 *713:9 0.056134
14 *689:13 *802:Di0[3] 0.00161071
*RES
1 *803:mem_wdata[3] *713:5 81.7696 
2 *713:5 *713:7 8 
3 *713:7 *713:9 103.654 
4 *713:9 *802:Di0[3] 48.8048 
*END

*D_NET *714 0.10765
*CONN
*I *802:Di0[4] I *D DFFRAM512x32
*I *803:mem_wdata[4] O *D memory_macro
*CAP
1 *802:Di0[4] 0
2 *803:mem_wdata[4] 0.00297389
3 *714:13 0.0127379
4 *714:9 0.0399652
5 *714:7 0.0272273
6 *714:5 0.00297389
7 *714:9 *716:9 0
8 *714:13 *716:13 0.000296707
9 *714:13 *717:13 0.000296707
10 *714:13 *718:13 0.000296707
11 *714:13 *719:13 0.000251239
12 *802:Di0[1] *714:13 0.000325813
13 *802:Di0[3] *714:13 0.0136057
14 *30:17 *714:9 0
15 *690:13 *714:13 0.00207459
16 *691:13 *714:13 0.00236751
17 *692:21 *714:13 0.00163725
18 *694:13 *714:13 0.0006199
*RES
1 *803:mem_wdata[4] *714:5 66.9796 
2 *714:5 *714:7 8 
3 *714:7 *714:9 90.4307 
4 *714:9 *714:13 49.3093 
5 *714:13 *802:Di0[4] 8 
*END

*D_NET *715 0.0844035
*CONN
*I *802:Di0[5] I *D DFFRAM512x32
*I *803:mem_wdata[5] O *D memory_macro
*CAP
1 *802:Di0[5] 0.000629486
2 *803:mem_wdata[5] 0.0020456
3 *715:13 0.010049
4 *715:11 0.0094195
5 *715:9 0.0239549
6 *715:7 0.0239549
7 *715:5 0.0020456
8 *802:Di0[5] *717:13 2.11157e-05
9 *715:13 *718:13 0
10 *715:13 *719:13 0
11 *693:13 *715:13 0.00465162
12 *699:13 *715:13 0.00763188
*RES
1 *803:mem_wdata[5] *715:5 45.8511 
2 *715:5 *715:7 8 
3 *715:7 *715:9 80.1696 
4 *715:9 *715:11 8 
5 *715:11 *715:13 282.388 
6 *715:13 *802:Di0[5] 44.9882 
*END

*D_NET *716 0.100782
*CONN
*I *802:Di0[6] I *D DFFRAM512x32
*I *803:mem_wdata[6] O *D memory_macro
*CAP
1 *802:Di0[6] 0.000354103
2 *803:mem_wdata[6] 0.00330508
3 *716:13 0.00459695
4 *716:11 0.00424285
5 *716:9 0.0210487
6 *716:7 0.0210487
7 *716:5 0.00330508
8 *802:Di0[6] *718:13 0.000105658
9 *716:13 *717:13 0.0194651
10 *716:13 *718:13 0.0211681
11 *802:Di0[2] *716:13 0.00114682
12 *802:Di0[3] *716:13 0.000592391
13 *68:13 *716:9 0
14 *689:13 *802:Di0[6] 0.000105658
15 *695:5 *716:13 0
16 *714:9 *716:9 0
17 *714:13 *716:13 0.000296707
*RES
1 *803:mem_wdata[6] *716:5 74.0225 
2 *716:5 *716:7 8 
3 *716:7 *716:9 71.3253 
4 *716:9 *716:11 8 
5 *716:11 *716:13 283.972 
6 *716:13 *802:Di0[6] 8.72053 
*END

*D_NET *717 0.0888643
*CONN
*I *802:Di0[7] I *D DFFRAM512x32
*I *803:mem_wdata[7] O *D memory_macro
*CAP
1 *802:Di0[7] 9.26655e-05
2 *803:mem_wdata[7] 0.00490701
3 *717:13 0.00705876
4 *717:11 0.00696609
5 *717:9 0.0186014
6 *717:7 0.0186014
7 *717:5 0.00490701
8 *717:9 *719:9 0
9 *717:13 *718:13 0.00144145
10 *802:Di0[2] *717:13 0.000985257
11 *802:Di0[3] *717:13 0.000485564
12 *802:Di0[5] *717:13 2.11157e-05
13 *530:14 *717:9 0
14 *692:13 *717:13 0.00503469
15 *695:5 *717:13 0
16 *714:13 *717:13 0.000296707
17 *716:13 *717:13 0.0194651
*RES
1 *803:mem_wdata[7] *717:5 109.941 
2 *717:5 *717:7 8 
3 *717:7 *717:9 61.6224 
4 *717:9 *717:11 8 
5 *717:11 *717:13 283.268 
6 *717:13 *802:Di0[7] 8.24267 
*END

*D_NET *718 0.104799
*CONN
*I *802:Di0[8] I *D DFFRAM512x32
*I *803:mem_wdata[8] O *D memory_macro
*CAP
1 *802:Di0[8] 0.000292919
2 *803:mem_wdata[8] 0.00401588
3 *718:13 0.00523063
4 *718:11 0.00493771
5 *718:9 0.0112577
6 *718:7 0.0112577
7 *718:5 0.00401588
8 *718:13 *719:13 0.00146378
9 io_out[1] *718:9 0.0149356
10 *802:Di0[2] *718:13 0.00141921
11 *802:Di0[3] *718:13 0.000649775
12 *802:Di0[6] *718:13 0.000105658
13 *689:13 *802:Di0[8] 0.000105658
14 *689:13 *718:13 0.0222051
15 *695:5 *718:13 0
16 *714:13 *718:13 0.000296707
17 *715:13 *718:13 0
18 *716:13 *718:13 0.0211681
19 *717:13 *718:13 0.00144145
*RES
1 *803:mem_wdata[8] *718:5 88.1082 
2 *718:5 *718:7 8 
3 *718:7 *718:9 51.6619 
4 *718:9 *718:11 8 
5 *718:11 *718:13 334.681 
6 *718:13 *802:Di0[8] 8.63467 
*END

*D_NET *719 0.115276
*CONN
*I *802:Di0[9] I *D DFFRAM512x32
*I *803:mem_wdata[9] O *D memory_macro
*CAP
1 *802:Di0[9] 0.000228041
2 *803:mem_wdata[9] 0.00474567
3 *719:13 0.00511917
4 *719:11 0.00489113
5 *719:9 0.00896631
6 *719:7 0.00896631
7 *719:5 0.00474567
8 *802:Di0[3] *719:13 0.00184712
9 *530:14 *719:9 0.0242986
10 *689:13 *719:13 0.0248716
11 *690:13 *719:13 0.0248186
12 *693:13 *719:13 0
13 *694:13 *719:13 6.25172e-05
14 *714:13 *719:13 0.000251239
15 *715:13 *719:13 0
16 *717:9 *719:9 0
17 *718:13 *719:13 0.00146378
*RES
1 *803:mem_wdata[9] *719:5 103.603 
2 *719:5 *719:7 8 
3 *719:7 *719:9 44.9643 
4 *719:9 *719:11 8 
5 *719:11 *719:13 352.992 
6 *719:13 *802:Di0[9] 8.3808 
*END

*D_NET *720 0.0189389
*CONN
*I *802:WE0[0] I *D DFFRAM512x32
*I *803:mem_we[0] O *D memory_macro
*CAP
1 *802:WE0[0] 0.00456819
2 *803:mem_we[0] 0.00173799
3 *720:11 0.00773145
4 *720:7 0.00490125
5 *667:14 *720:11 0
6 *699:5 *802:WE0[0] 0
*RES
1 *803:mem_we[0] *720:7 46.1039 
2 *720:7 *720:11 18.4459 
3 *720:11 *802:WE0[0] 102.898 
*END

*D_NET *721 0.0354256
*CONN
*I *802:WE0[1] I *D DFFRAM512x32
*I *803:mem_we[1] O *D memory_macro
*CAP
1 *802:WE0[1] 0.00393213
2 *803:mem_we[1] 0.00238029
3 *721:11 0.00393213
4 *721:9 0.00960991
5 *721:5 0.0119902
6 *30:17 *721:9 0
7 *678:14 *721:9 0.00358092
*RES
1 *803:mem_we[1] *721:5 53.5982 
2 *721:5 *721:9 42.3168 
3 *721:9 *721:11 8 
4 *721:11 *802:WE0[1] 87.4039 
*END

*D_NET *722 0.0666726
*CONN
*I *802:WE0[2] I *D DFFRAM512x32
*I *803:mem_we[2] O *D memory_macro
*CAP
1 *802:WE0[2] 0.00566256
2 *803:mem_we[2] 0.000858986
3 *722:11 0.00566256
4 *722:9 0.0115647
5 *722:7 0.0124237
6 *41:5 *722:9 0.0305002
*RES
1 *803:mem_we[2] *722:7 26.3839 
2 *722:7 *722:9 58.1019 
3 *722:9 *722:11 8 
4 *722:11 *802:WE0[2] 122.618 
*END

*D_NET *723 0.0623141
*CONN
*I *802:WE0[3] I *D DFFRAM512x32
*I *803:mem_we[3] O *D memory_macro
*CAP
1 *802:WE0[3] 0.00631727
2 *803:mem_we[3] 0.000137829
3 *723:11 0.00631727
4 *723:9 0.0218618
5 *723:7 0.0219996
6 *588:45 *723:9 8.89424e-05
7 *650:6 *723:9 0.00558172
8 *660:31 *723:9 9.75158e-06
9 *682:14 *723:9 0
10 *685:18 *723:9 0
11 *692:5 *802:WE0[3] 0
*RES
1 *803:mem_we[3] *723:7 10.8896 
2 *723:7 *723:9 81.9728 
3 *723:9 *723:11 8 
4 *723:11 *802:WE0[3] 138.113 
*END

*D_NET *724 0.181024
*CONN
*I *803:cpu_mem_addr[0] I *D memory_macro
*I *804:mem_addr[0] O *D picorv32_soc
*CAP
1 *803:cpu_mem_addr[0] 0.000789008
2 *804:mem_addr[0] 0.000119162
3 *724:14 0.0350964
4 *724:12 0.0343074
5 *724:10 0.0380452
6 *724:8 0.0381644
7 *724:8 *735:34 0.000177951
8 *724:8 *737:36 0.000177951
9 *724:10 *734:13 0.00586023
10 *724:10 *765:13 0
11 *531:14 *724:14 0.0282866
*RES
1 *804:mem_addr[0] *724:8 16.3565 
2 *724:8 *724:10 133.717 
3 *724:10 *724:12 8 
4 *724:12 *724:14 133.793 
5 *724:14 *803:cpu_mem_addr[0] 25.6796 
*END

*D_NET *725 0.210697
*CONN
*I *803:cpu_mem_addr[1] I *D memory_macro
*I *804:mem_addr[1] O *D picorv32_soc
*CAP
1 *803:cpu_mem_addr[1] 0.00418168
2 *804:mem_addr[1] 0.000201905
3 *725:23 0.0372326
4 *725:21 0.0330509
5 *725:19 0.00928618
6 *725:17 0.0095083
7 *725:11 0.00436346
8 *725:9 0.00434325
9 *803:cpu_mem_addr[1] *803:cpu_mem_we[0] 0
10 *803:cpu_mem_addr[1] *803:cpu_mem_we[1] 0.000190707
11 *725:11 *737:36 0.00501447
12 *725:11 *786:14 0.00170158
13 *725:11 *799:9 0.000221587
14 *725:11 *799:11 0.00966708
15 *725:19 *726:19 0.0375735
16 *725:19 *726:25 0.00178383
17 *725:19 *791:9 0.0413955
18 *725:19 *798:11 0.000520771
19 *725:23 *726:27 0
20 *725:23 *756:18 0
21 *725:23 *788:25 0.0100193
22 *725:23 *800:13 0
23 *121:12 *725:19 0.000439952
24 *126:11 *725:23 0
25 *609:17 *803:cpu_mem_addr[1] 0
*RES
1 *804:mem_addr[1] *725:9 17.2993 
2 *725:9 *725:11 138.309 
3 *725:11 *725:17 26.1382 
4 *725:17 *725:19 79.3968 
5 *725:19 *725:21 8 
6 *725:21 *725:23 752.322 
7 *725:23 *803:cpu_mem_addr[1] 38.2674 
*END

*D_NET *726 0.230072
*CONN
*I *803:cpu_mem_addr[2] I *D memory_macro
*I *804:mem_addr[2] O *D picorv32_soc
*CAP
1 *803:cpu_mem_addr[2] 0.000344481
2 *804:mem_addr[2] 0.000314371
3 *726:27 0.0215965
4 *726:25 0.0225613
5 *726:19 0.010196
6 *726:17 0.00896448
7 *726:11 0.000940537
8 *726:9 0.00117723
9 *803:cpu_mem_addr[2] *803:cpu_mem_wdata[2] 0.000226904
10 *803:cpu_mem_addr[2] *803:cpu_mem_wdata[3] 8.37505e-05
11 *726:11 *735:34 0.00133337
12 *726:11 *784:19 0.00682783
13 *726:11 *785:14 0.00696995
14 *726:19 *730:12 0.000391246
15 *726:19 *731:17 0.00198657
16 *726:19 *735:34 0.00114656
17 *726:19 *786:14 0.00203407
18 *726:19 *791:9 0.000956877
19 *726:19 *799:19 0.0367487
20 *726:19 *799:25 0.000610631
21 *726:25 *791:9 9.82943e-05
22 *726:25 *799:25 0.000636509
23 *726:27 *791:13 0.0597841
24 *804:io_in[23] *726:25 0.000620873
25 *83:6 *726:25 0.00175644
26 *121:12 *726:25 0.000439952
27 *127:9 *726:27 0.00196716
28 *545:19 *803:cpu_mem_addr[2] 0
29 *609:17 *803:cpu_mem_addr[2] 0
30 *725:19 *726:19 0.0375735
31 *725:19 *726:25 0.00178383
32 *725:23 *726:27 0
*RES
1 *804:mem_addr[2] *726:9 17.2993 
2 *726:9 *726:11 74.4679 
3 *726:11 *726:17 24.0254 
4 *726:17 *726:19 79.0104 
5 *726:19 *726:25 16.6968 
6 *726:25 *726:27 761.478 
7 *726:27 *803:cpu_mem_addr[2] 17.4299 
*END

*D_NET *727 0.215321
*CONN
*I *803:cpu_mem_addr[3] I *D memory_macro
*I *804:mem_addr[3] O *D picorv32_soc
*CAP
1 *803:cpu_mem_addr[3] 0.00608944
2 *804:mem_addr[3] 0.0278637
3 *727:24 0.00783701
4 *727:18 0.0322517
5 *727:16 0.0583678
6 *727:16 *804:mem_rdata[16] 0.000233382
7 *727:16 *804:mem_rdata[1] 0.0142696
8 *727:16 *804:mem_rdata[3] 1.37717e-05
9 *727:16 *804:mem_rdata[9] 0.000150136
10 *727:16 *735:34 0.00176762
11 *727:16 *737:36 0.000445788
12 *727:16 *741:17 0.00215279
13 *727:16 *761:33 0.000121157
14 *727:16 *762:21 0.000412161
15 *727:16 *784:11 0.0035403
16 *727:16 *785:10 0.00250925
17 *727:16 *786:12 0.000605016
18 *727:16 *799:25 0.00129511
19 *727:16 *801:14 0.000128083
20 *727:18 *756:18 0.00900053
21 *727:18 *788:25 0.00156675
22 *727:18 *800:13 0.0100497
23 *727:24 *759:11 0.0071093
24 *727:24 *800:19 0.00534131
25 *804:io_in[23] *727:16 0.000467605
26 *83:6 *727:16 0.000137161
27 *97:8 *727:18 0.00505106
28 *126:11 *727:18 0.00244026
29 *129:11 *727:18 0.0115307
30 *131:9 *727:18 0.00253609
31 *529:16 *727:24 3.65542e-05
*RES
1 *804:mem_addr[3] *727:16 29.8025 
2 *727:16 *727:18 111.757 
3 *727:18 *727:24 29.2365 
4 *727:24 *803:cpu_mem_addr[3] 138.817 
*END

*D_NET *728 0.232783
*CONN
*I *803:cpu_mem_addr[4] I *D memory_macro
*I *804:mem_addr[4] O *D picorv32_soc
*CAP
1 *803:cpu_mem_addr[4] 0.00619688
2 *804:mem_addr[4] 0.000178528
3 *728:45 0.00725825
4 *728:41 0.00511023
5 *728:19 0.0143218
6 *728:17 0.0102729
7 *728:15 0.00751967
8 *728:13 0.00751967
9 *728:11 0.00220473
10 *728:9 0.00238325
11 *728:11 *729:11 0.0106947
12 *728:11 *730:12 0.00219335
13 *728:11 *792:9 0
14 *728:11 *798:11 0.00664465
15 *728:15 *729:15 0.0487365
16 *728:15 *730:14 0.00488602
17 *728:15 *795:13 0.048761
18 *728:19 *731:27 0.0054848
19 *728:19 *760:17 0.0289827
20 *728:19 *794:17 0.000509373
21 *728:41 *730:26 0.00039825
22 *728:41 *760:13 0.0028012
23 *728:41 *762:9 0.000660765
24 *728:41 *792:33 0.00653245
25 *728:45 *760:13 4.03335e-05
26 *68:11 *728:15 0.000635281
27 *70:9 *728:15 0.0018554
*RES
1 *804:mem_addr[4] *728:9 16.8229 
2 *728:9 *728:11 114.488 
3 *728:11 *728:13 15 
4 *728:13 *728:15 621.677 
5 *728:15 *728:17 15 
6 *728:17 *728:19 334.598 
7 *728:19 *728:41 47.0707 
8 *728:41 *728:45 11.5336 
9 *728:45 *803:cpu_mem_addr[4] 140.225 
*END

*D_NET *729 0.256511
*CONN
*I *803:cpu_mem_addr[5] I *D memory_macro
*I *804:mem_addr[5] O *D picorv32_soc
*CAP
1 *803:cpu_mem_addr[5] 0.00605397
2 *804:mem_addr[5] 0.000121395
3 *729:29 0.00923873
4 *729:25 0.00332626
5 *729:19 0.00373343
6 *729:17 0.00359193
7 *729:15 0.00766111
8 *729:13 0.00766111
9 *729:11 0.00172681
10 *729:9 0.0018482
11 *729:11 *730:12 0.000101881
12 *729:11 *731:21 0.00186222
13 *729:11 *785:14 0.0123346
14 *729:11 *791:9 0.000120692
15 *729:11 *798:9 0.000115009
16 *729:11 *798:11 0.000894784
17 *729:15 *730:14 0.0044379
18 *729:15 *760:21 0.0480825
19 *729:15 *762:13 0.000132162
20 *729:15 *795:13 3.16875e-05
21 *729:15 *796:13 0
22 *729:19 *761:17 0.0216151
23 *729:19 *792:17 0.0244452
24 *729:19 *793:17 0.000352841
25 *729:19 *794:17 0.00583282
26 *729:25 *803:cpu_mem_addr[8] 0
27 *729:29 *730:26 0.0018704
28 *729:29 *760:13 0.0106106
29 *729:29 *761:13 0.0136895
30 *729:29 *762:9 0.00237235
31 *729:29 *763:19 0.000358698
32 *68:11 *729:15 0.000728523
33 *70:9 *729:15 0.00212773
34 *728:11 *729:11 0.0106947
35 *728:15 *729:15 0.0487365
*RES
1 *804:mem_addr[5] *729:9 16.8229 
2 *729:9 *729:11 132.116 
3 *729:11 *729:13 15 
4 *729:13 *729:15 622.381 
5 *729:15 *729:17 15 
6 *729:17 *729:19 266.945 
7 *729:19 *729:25 25.4339 
8 *729:25 *729:29 36.5637 
9 *729:29 *803:cpu_mem_addr[5] 136.704 
*END

*D_NET *730 0.27236
*CONN
*I *803:cpu_mem_addr[6] I *D memory_macro
*I *804:mem_addr[6] O *D picorv32_soc
*CAP
1 *803:cpu_mem_addr[6] 0
2 *804:mem_addr[6] 0.00464622
3 *730:26 0.0344355
4 *730:14 0.0723122
5 *730:12 0.0425229
6 *730:12 *731:17 0.000572213
7 *730:12 *731:21 0.0120732
8 *730:12 *732:9 0.00254549
9 *730:12 *735:34 0.00171442
10 *730:12 *770:9 0.000112205
11 *730:12 *788:23 0.000133432
12 *730:12 *791:9 0.00142652
13 *730:12 *798:11 0.00151814
14 *730:14 *735:30 0.00937822
15 *730:14 *736:26 0.00937822
16 *730:14 *760:21 0.00276046
17 *730:14 *762:13 0.00276226
18 *730:14 *769:15 0
19 *730:14 *795:13 0.00817791
20 *730:26 *731:27 0.00267192
21 *730:26 *732:17 0.00387468
22 *730:26 *760:13 0.000956771
23 *730:26 *761:13 0.00272652
24 *730:26 *762:9 0.00412549
25 *730:26 *763:19 0.000166435
26 *730:26 *763:21 0.00199373
27 *730:26 *764:9 0.00382631
28 *730:26 *765:11 0.00768158
29 *730:26 *792:33 0.000471964
30 *730:26 *793:27 0.00728139
31 *730:26 *794:17 0.00328927
32 *730:26 *795:17 0.00229799
33 *67:9 *730:14 0.000538308
34 *68:11 *730:14 0.00257065
35 *69:9 *730:14 0.00105125
36 *70:9 *730:14 0.0060377
37 *584:19 *730:26 4.93791e-05
38 *726:19 *730:12 0.000391246
39 *728:11 *730:12 0.00219335
40 *728:15 *730:14 0.00488602
41 *728:41 *730:26 0.00039825
42 *729:11 *730:12 0.000101881
43 *729:15 *730:14 0.0044379
44 *729:29 *730:26 0.0018704
*RES
1 *804:mem_addr[6] *730:12 43.1283 
2 *730:12 *730:14 112.9 
3 *730:14 *730:26 42.4373 
4 *730:26 *803:cpu_mem_addr[6] 8 
*END

*D_NET *731 0.248022
*CONN
*I *803:cpu_mem_addr[7] I *D memory_macro
*I *804:mem_addr[7] O *D picorv32_soc
*CAP
1 *803:cpu_mem_addr[7] 0.0062158
2 *804:mem_addr[7] 0.000851537
3 *731:29 0.0062158
4 *731:27 0.00644445
5 *731:25 0.00644445
6 *731:23 0.00715506
7 *731:21 0.0097192
8 *731:17 0.00341568
9 *803:cpu_mem_addr[7] *760:13 0.000166181
10 *731:17 *791:9 0.0030479
11 *731:17 *798:11 0.000627704
12 *731:21 *735:34 0.0124532
13 *731:21 *785:14 0.00250049
14 *731:23 *732:13 0.0489066
15 *731:23 *761:21 0.0485419
16 *731:27 *760:17 0.00677081
17 *731:27 *763:19 0.00343451
18 *731:27 *763:21 0.0130649
19 *731:27 *792:27 0.00137888
20 *731:27 *792:33 0.000225498
21 *731:27 *794:17 0.0300604
22 *804:io_in[3] *731:23 0.000672846
23 *79:8 *731:23 0.00132834
24 *79:10 *731:27 2.79949e-05
25 *531:12 *803:cpu_mem_addr[7] 0.00370046
26 *726:19 *731:17 0.00198657
27 *728:19 *731:27 0.0054848
28 *729:11 *731:21 0.00186222
29 *730:12 *731:17 0.000572213
30 *730:12 *731:21 0.0120732
31 *730:26 *731:27 0.00267192
*RES
1 *804:mem_addr[7] *731:17 32.7609 
2 *731:17 *731:21 31.0683 
3 *731:21 *731:23 621.325 
4 *731:23 *731:25 8 
5 *731:25 *731:27 55.6976 
6 *731:27 *731:29 8 
7 *731:29 *803:cpu_mem_addr[7] 139.521 
*END

*D_NET *732 0.224158
*CONN
*I *803:cpu_mem_addr[8] I *D memory_macro
*I *804:mem_addr[8] O *D picorv32_soc
*CAP
1 *803:cpu_mem_addr[8] 0.00613519
2 *804:mem_addr[8] 0.00439663
3 *732:19 0.00613519
4 *732:17 0.00462564
5 *732:15 0.00462564
6 *732:13 0.00733403
7 *732:11 0.00733403
8 *732:9 0.00439663
9 *732:9 *770:9 0.0167175
10 *732:9 *788:23 0.000266023
11 *732:9 *791:9 0.00761821
12 *732:13 *737:28 0.000102293
13 *732:13 *761:21 2.07642e-05
14 *732:13 *763:25 0.0490155
15 *732:17 *761:13 0.000936801
16 *732:17 *762:9 0.0247497
17 *732:17 *764:9 0.022127
18 *804:io_in[3] *732:13 0.000771601
19 *79:8 *732:13 0.0015233
20 *729:25 *803:cpu_mem_addr[8] 0
21 *730:12 *732:9 0.00254549
22 *730:26 *732:17 0.00387468
23 *731:23 *732:13 0.0489066
*RES
1 *804:mem_addr[8] *732:9 42.0979 
2 *732:9 *732:11 8 
3 *732:11 *732:13 626.255 
4 *732:13 *732:15 8 
5 *732:15 *732:17 45.8229 
6 *732:17 *732:19 8 
7 *732:19 *803:cpu_mem_addr[8] 137.408 
*END

*D_NET *733 0.179909
*CONN
*I *803:cpu_mem_en I *D memory_macro
*I *804:mem_en O *D picorv32_soc
*CAP
1 *803:cpu_mem_en 0.0029706
2 *804:mem_en 3.30659e-05
3 *733:16 0.0029706
4 *733:14 0.0420412
5 *733:12 0.0420412
6 *733:10 0.0188917
7 *733:8 0.0189247
8 *733:8 *735:34 4.93791e-05
9 *733:8 *737:36 4.93791e-05
10 *733:10 *764:13 0.0260542
11 *733:10 *765:13 0.0258834
12 *733:14 *734:9 0
*RES
1 *804:mem_en *733:8 16.0989 
2 *733:8 *733:10 124.831 
3 *733:10 *733:12 8 
4 *733:12 *733:14 138.516 
5 *733:14 *733:16 8 
6 *733:16 *803:cpu_mem_en 66.9796 
*END

*D_NET *734 0.156989
*CONN
*I *804:mem_rdata[0] I *D picorv32_soc
*I *803:cpu_mem_rdata[0] O *D memory_macro
*CAP
1 *804:mem_rdata[0] 3.30659e-05
2 *803:cpu_mem_rdata[0] 0.00331534
3 *734:13 0.0332903
4 *734:11 0.0332572
5 *734:9 0.0389095
6 *734:7 0.0389095
7 *734:5 0.00331534
8 *804:mem_rdata[0] *735:34 4.93791e-05
9 *804:mem_rdata[0] *737:36 4.93791e-05
10 *724:10 *734:13 0.00586023
11 *733:14 *734:9 0
*RES
1 *803:cpu_mem_rdata[0] *734:5 74.0225 
2 *734:5 *734:7 8 
3 *734:7 *734:9 129.929 
4 *734:9 *734:11 8 
5 *734:11 *734:13 123.562 
6 *734:13 *804:mem_rdata[0] 16.0989 
*END

*D_NET *735 0.227866
*CONN
*I *804:mem_rdata[10] I *D picorv32_soc
*I *803:cpu_mem_rdata[10] O *D memory_macro
*CAP
1 *804:mem_rdata[10] 0
2 *803:cpu_mem_rdata[10] 0.000600653
3 *735:34 0.00505216
4 *735:30 0.0144367
5 *735:28 0.00943263
6 *735:26 0.00230893
7 *735:24 0.00226084
8 *735:22 0.00649397
9 *735:12 0.00709462
10 *735:12 *803:cpu_mem_wdata[9] 0.00164423
11 *735:12 *796:17 0.00164423
12 *735:22 *803:cpu_mem_wdata[12] 0.0024966
13 *735:22 *736:24 6.52177e-06
14 *735:22 *767:25 0.0130944
15 *735:22 *770:27 9.19483e-05
16 *735:22 *796:17 0.000140076
17 *735:26 *736:26 0.00171773
18 *735:30 *736:26 0.0546229
19 *735:30 *795:13 0.0498276
20 *735:34 *804:mem_rdata[1] 0.000379909
21 *735:34 *804:mem_rdata[2] 0.000285253
22 *735:34 *804:mem_rdata[3] 0.000135094
23 *735:34 *804:mem_rdata[6] 0.000332571
24 *735:34 *804:mem_rdata[9] 0.000616541
25 *735:34 *737:36 0.00900949
26 *735:34 *741:17 0.000137472
27 *735:34 *760:33 0.000486904
28 *735:34 *761:33 0.000263666
29 *735:34 *784:19 0.00430509
30 *735:34 *786:14 0.00465254
31 *735:34 *799:11 0.00152331
32 *735:34 *799:19 0.00406924
33 *735:34 *801:14 4.93791e-05
34 *804:mem_rdata[0] *735:34 4.93791e-05
35 *68:11 *735:30 0.0005823
36 *724:8 *735:34 0.000177951
37 *726:11 *735:34 0.00133337
38 *726:19 *735:34 0.00114656
39 *727:16 *735:34 0.00176762
40 *730:12 *735:34 0.00171442
41 *730:14 *735:30 0.00937822
42 *731:21 *735:34 0.0124532
43 *733:8 *735:34 4.93791e-05
*RES
1 *803:cpu_mem_rdata[10] *735:12 28.0488 
2 *735:12 *735:22 44.7485 
3 *735:22 *735:24 8 
4 *735:24 *735:26 65.9129 
5 *735:26 *735:28 1.09786 
6 *735:28 *735:30 696.414 
7 *735:30 *735:34 46.2667 
8 *735:34 *804:mem_rdata[10] 8 
*END

*D_NET *736 0.231158
*CONN
*I *804:mem_rdata[11] I *D picorv32_soc
*I *803:cpu_mem_rdata[11] O *D memory_macro
*CAP
1 *804:mem_rdata[11] 0.000410819
2 *803:cpu_mem_rdata[11] 0.00285042
3 *736:30 0.00740738
4 *736:26 0.0178809
5 *736:24 0.0115771
6 *736:14 0.00354315
7 *804:mem_rdata[11] *768:9 0
8 *736:14 *803:cpu_mem_wdata[12] 0.00132045
9 *736:14 *803:cpu_mem_wdata[9] 0.00118842
10 *736:14 *737:18 0.00714667
11 *736:14 *767:25 0.00218168
12 *736:14 *768:31 0.00936179
13 *736:14 *796:17 0.00184312
14 *736:24 *737:18 1.57985e-05
15 *736:24 *738:21 0.000477953
16 *736:24 *770:27 0.00010928
17 *736:24 *796:17 1.74643e-05
18 *736:26 *738:23 0.0595052
19 *736:26 *795:13 0.000226764
20 *736:30 *739:19 0.00587462
21 *736:30 *742:9 0.00355554
22 *736:30 *764:19 0.0164273
23 *736:30 *766:9 0.00372925
24 *736:30 *770:9 0.000137147
25 *736:30 *772:13 0.00161075
26 *736:30 *772:17 0.00279346
27 *736:30 *774:17 0.00298428
28 *736:30 *794:9 0.000676022
29 *68:11 *736:26 0.000385188
30 *584:19 *736:24 0.000194968
31 *730:14 *736:26 0.00937822
32 *735:22 *736:24 6.52177e-06
33 *735:26 *736:26 0.00171773
34 *735:30 *736:26 0.0546229
*RES
1 *803:cpu_mem_rdata[11] *736:14 47.6451 
2 *736:14 *736:24 25.7341 
3 *736:24 *736:26 768.521 
4 *736:26 *736:30 48.3275 
5 *736:30 *804:mem_rdata[11] 14.3282 
*END

*D_NET *737 0.198602
*CONN
*I *804:mem_rdata[12] I *D picorv32_soc
*I *803:cpu_mem_rdata[12] O *D memory_macro
*CAP
1 *804:mem_rdata[12] 0
2 *803:cpu_mem_rdata[12] 0.00247371
3 *737:36 0.00577671
4 *737:28 0.016832
5 *737:26 0.0112316
6 *737:18 0.00265007
7 *737:18 *803:cpu_mem_wdata[12] 0.00132045
8 *737:18 *803:cpu_mem_wdata[9] 0.00136851
9 *737:18 *767:25 0.00716745
10 *737:26 *738:21 0.000140076
11 *737:28 *739:15 0.059726
12 *737:28 *763:25 0.0486556
13 *737:28 *797:13 0
14 *737:36 *804:mem_rdata[1] 0.000379909
15 *737:36 *804:mem_rdata[2] 0.000285253
16 *737:36 *804:mem_rdata[3] 0.000135094
17 *737:36 *804:mem_rdata[6] 0.000332571
18 *737:36 *804:mem_rdata[9] 0.000616541
19 *737:36 *741:17 0.0113713
20 *737:36 *760:33 0.000486904
21 *737:36 *761:33 0.000263666
22 *737:36 *784:11 0.000169375
23 *737:36 *786:14 0.000740391
24 *737:36 *799:19 0.00166323
25 *737:36 *801:14 4.93791e-05
26 *804:io_in[3] *737:28 0.000680112
27 *804:mem_rdata[0] *737:36 4.93791e-05
28 *79:8 *737:28 0.00132834
29 *584:19 *737:18 0.000677491
30 *584:19 *737:26 6.86192e-05
31 *724:8 *737:36 0.000177951
32 *725:11 *737:36 0.00501447
33 *727:16 *737:36 0.000445788
34 *732:13 *737:28 0.000102293
35 *733:8 *737:36 4.93791e-05
36 *735:34 *737:36 0.00900949
37 *736:14 *737:18 0.00714667
38 *736:24 *737:18 1.57985e-05
*RES
1 *803:cpu_mem_rdata[12] *737:18 49.5037 
2 *737:18 *737:26 17.3685 
3 *737:26 *737:28 760.069 
4 *737:28 *737:36 49.3803 
5 *737:36 *804:mem_rdata[12] 8 
*END

*D_NET *738 0.178006
*CONN
*I *804:mem_rdata[13] I *D picorv32_soc
*I *803:cpu_mem_rdata[13] O *D memory_macro
*CAP
1 *804:mem_rdata[13] 0.00049557
2 *803:cpu_mem_rdata[13] 7.12777e-05
3 *738:27 0.00547484
4 *738:25 0.00497927
5 *738:23 0.0207202
6 *738:21 0.0213027
7 *738:11 0.00235843
8 *738:9 0.00184728
9 *804:mem_rdata[13] *744:19 0
10 *738:11 *770:29 0.000592607
11 *738:11 *796:17 0.00186295
12 *738:21 *803:cpu_mem_wdata[9] 0.000436834
13 *738:21 *770:29 0.0003802
14 *738:21 *796:17 0.00135639
15 *738:23 *761:21 0
16 *738:23 *770:27 6.85548e-05
17 *738:23 *795:13 3.77078e-05
18 *738:27 *804:mem_rdata[15] 0.00524604
19 *738:27 *742:17 0.00574382
20 *738:27 *764:19 0.000240408
21 *738:27 *768:11 0.00970395
22 *738:27 *772:13 0.00790833
23 *738:27 *794:9 0.0155372
24 *61:17 *738:23 0.000160515
25 *137:11 *738:23 0.0112709
26 *529:28 *738:11 0
27 *584:19 *738:21 8.69777e-05
28 *736:24 *738:21 0.000477953
29 *736:26 *738:23 0.0595052
30 *737:26 *738:21 0.000140076
*RES
1 *803:cpu_mem_rdata[13] *738:9 16.3464 
2 *738:9 *738:11 44.9293 
3 *738:11 *738:21 34.6574 
4 *738:21 *738:23 771.338 
5 *738:23 *738:25 8 
6 *738:25 *738:27 44.2773 
7 *738:27 *804:mem_rdata[13] 15.8196 
*END

*D_NET *739 0.169066
*CONN
*I *804:mem_rdata[14] I *D picorv32_soc
*I *803:cpu_mem_rdata[14] O *D memory_macro
*CAP
1 *804:mem_rdata[14] 0.000211783
2 *803:cpu_mem_rdata[14] 0.000425247
3 *739:19 0.00758652
4 *739:17 0.00737474
5 *739:15 0.0212862
6 *739:13 0.0217115
7 *739:13 *803:cpu_mem_wdata[9] 0.000208196
8 *739:13 *770:29 0.000780199
9 *739:15 *763:25 0.000200786
10 *739:15 *797:13 0
11 *739:19 *743:9 0.00271702
12 *739:19 *744:9 0.0030714
13 *739:19 *746:9 0.00480739
14 *739:19 *754:35 0.000111919
15 *739:19 *770:9 0.0230287
16 *739:19 *772:13 5.54597e-05
17 *739:19 *774:15 0.00272431
18 *739:19 *776:17 0.00378236
19 *739:19 *798:19 0.000267474
20 *804:io_in[3] *739:15 0.0005843
21 *79:8 *739:15 0.00114121
22 *529:28 *739:13 0.00138854
23 *736:30 *739:19 0.00587462
24 *737:28 *739:15 0.059726
*RES
1 *803:cpu_mem_rdata[14] *739:13 47.2136 
2 *739:13 *739:15 765.88 
3 *739:15 *739:17 8 
4 *739:17 *739:19 45.0501 
5 *739:19 *804:mem_rdata[14] 11.5939 
*END

*D_NET *740 0.208617
*CONN
*I *804:mem_rdata[15] I *D picorv32_soc
*I *803:cpu_mem_rdata[15] O *D memory_macro
*CAP
1 *804:mem_rdata[15] 0.0226529
2 *803:cpu_mem_rdata[15] 3.19795e-05
3 *740:10 0.0610533
4 *740:8 0.0384324
5 *804:mem_rdata[15] *742:17 0.00201598
6 *804:mem_rdata[15] *744:19 0.000328697
7 *804:mem_rdata[15] *763:31 0.00258618
8 *804:mem_rdata[15] *764:19 0.00297971
9 *804:mem_rdata[15] *767:11 0.000926706
10 *804:mem_rdata[15] *768:11 0.00405091
11 *804:mem_rdata[15] *769:11 0.000655337
12 *804:mem_rdata[15] *771:7 0
13 *804:mem_rdata[15] *771:9 0.000749252
14 *804:mem_rdata[15] *772:13 0.00262022
15 *804:mem_rdata[15] *773:9 0.00086554
16 *804:mem_rdata[15] *775:9 0.00351609
17 *804:mem_rdata[15] *776:13 0.000273391
18 *804:mem_rdata[15] *777:17 0.00131357
19 *804:mem_rdata[15] *787:16 0.00143564
20 *804:mem_rdata[15] *788:23 0.0129404
21 *804:mem_rdata[15] *794:9 0.00332436
22 *804:mem_rdata[15] *795:11 0.000655337
23 *740:8 *770:27 5.25168e-05
24 *740:10 *741:13 0.00492582
25 *740:10 *767:13 0.00699154
26 *740:10 *768:15 0.00628205
27 *740:10 *769:15 0
28 *740:10 *770:13 0.0065207
29 *740:10 *801:18 0.00521782
30 *73:9 *740:10 0
31 *143:9 *740:10 0.00992323
32 *584:19 *740:8 4.93791e-05
33 *738:27 *804:mem_rdata[15] 0.00524604
*RES
1 *803:cpu_mem_rdata[15] *740:8 16.0989 
2 *740:8 *740:10 138.794 
3 *740:10 *804:mem_rdata[15] 34.0119 
*END

*D_NET *741 0.132027
*CONN
*I *804:mem_rdata[16] I *D picorv32_soc
*I *803:cpu_mem_rdata[16] O *D memory_macro
*CAP
1 *804:mem_rdata[16] 0.000420264
2 *803:cpu_mem_rdata[16] 0.00263597
3 *741:17 0.00851571
4 *741:15 0.00809545
5 *741:13 0.023544
6 *741:11 0.0254212
7 *741:5 0.00451317
8 *804:mem_rdata[16] *784:11 0.00108982
9 *804:mem_rdata[16] *799:19 0.00108982
10 *741:13 *767:13 0
11 *741:13 *771:13 0
12 *741:13 *793:13 0
13 *741:13 *794:13 0.0168531
14 *741:17 *804:mem_rdata[1] 0.000277011
15 *741:17 *759:17 0.00131183
16 *741:17 *761:33 0.00160557
17 *741:17 *762:21 0.000416066
18 *741:17 *765:21 0.00119635
19 *741:17 *770:9 0
20 *741:17 *784:11 0.0012664
21 *741:17 *801:14 0.0113579
22 *143:9 *741:13 0.00359636
23 *727:16 *804:mem_rdata[16] 0.000233382
24 *727:16 *741:17 0.00215279
25 *735:34 *741:17 0.000137472
26 *737:36 *741:17 0.0113713
27 *740:10 *741:13 0.00492582
*RES
1 *803:cpu_mem_rdata[16] *741:5 57.1196 
2 *741:5 *741:11 22.8395 
3 *741:11 *741:13 700.205 
4 *741:13 *741:15 8 
5 *741:15 *741:17 50.4168 
6 *741:17 *804:mem_rdata[16] 26.5517 
*END

*D_NET *742 0.150931
*CONN
*I *804:mem_rdata[17] I *D picorv32_soc
*I *803:cpu_mem_rdata[17] O *D memory_macro
*CAP
1 *804:mem_rdata[17] 0.000484706
2 *803:cpu_mem_rdata[17] 0.0336036
3 *742:17 0.00294487
4 *742:9 0.00636576
5 *742:7 0.00390559
6 *742:5 0.0336036
7 *742:9 *757:17 0.00182551
8 *742:9 *766:9 0.0142719
9 *742:9 *772:17 0.00328308
10 *742:9 *774:17 0.0252864
11 *742:17 *744:19 0.00464146
12 *742:17 *766:25 0.000489924
13 *742:17 *768:11 0.00402724
14 *742:17 *772:13 0.00121548
15 *742:17 *776:13 0.000580925
16 *742:17 *777:17 0.00081458
17 *804:mem_rdata[15] *742:17 0.00201598
18 *109:9 *742:5 0.00227135
19 *736:30 *742:9 0.00355554
20 *738:27 *742:17 0.00574382
*RES
1 *803:cpu_mem_rdata[17] *742:5 766.864 
2 *742:5 *742:7 15 
3 *742:7 *742:9 270.756 
4 *742:9 *742:17 45.0849 
5 *742:17 *804:mem_rdata[17] 16.5239 
*END

*D_NET *743 0.162471
*CONN
*I *804:mem_rdata[18] I *D picorv32_soc
*I *803:cpu_mem_rdata[18] O *D memory_macro
*CAP
1 *804:mem_rdata[18] 0.00216355
2 *803:cpu_mem_rdata[18] 0.0335309
3 *743:9 0.00684517
4 *743:7 0.00468161
5 *743:5 0.0335309
6 *804:mem_rdata[18] *746:19 0.00491669
7 *804:mem_rdata[18] *754:43 0.000263719
8 *804:mem_rdata[18] *766:9 0.000167182
9 *804:mem_rdata[18] *772:13 0.000586584
10 *804:mem_rdata[18] *774:15 0.00645734
11 *743:9 *744:9 0.0326141
12 *743:9 *757:17 0.000148876
13 *743:9 *766:9 1.21972e-05
14 *743:9 *774:17 0.0308798
15 *108:9 *743:5 0.00295507
16 *739:19 *743:9 0.00271702
*RES
1 *803:cpu_mem_rdata[18] *743:5 766.159 
2 *743:5 *743:7 15 
3 *743:7 *743:9 349.367 
4 *743:9 *804:mem_rdata[18] 49.6889 
*END

*D_NET *744 0.169703
*CONN
*I *804:mem_rdata[19] I *D picorv32_soc
*I *803:cpu_mem_rdata[19] O *D memory_macro
*CAP
1 *804:mem_rdata[19] 0.00048768
2 *803:cpu_mem_rdata[19] 0.0334845
3 *744:19 0.00228452
4 *744:9 0.00757097
5 *744:7 0.00577412
6 *744:5 0.0334845
7 *744:5 *784:23 0
8 *744:9 *757:17 0
9 *744:9 *766:9 0.000335492
10 *744:9 *776:17 0.0373819
11 *744:19 *766:25 0.000775957
12 *744:19 *769:9 0
13 *744:19 *776:13 0.000602919
14 *744:19 *777:17 0.00686432
15 *804:mem_rdata[13] *744:19 0
16 *804:mem_rdata[15] *744:19 0.000328697
17 *739:19 *744:9 0.0030714
18 *742:17 *744:19 0.00464146
19 *743:9 *744:9 0.0326141
*RES
1 *803:cpu_mem_rdata[19] *744:5 765.807 
2 *744:5 *744:7 15 
3 *744:7 *744:9 400.345 
4 *744:9 *744:19 48.6632 
5 *744:19 *804:mem_rdata[19] 9.22821 
*END

*D_NET *745 0.211812
*CONN
*I *804:mem_rdata[1] I *D picorv32_soc
*I *803:cpu_mem_rdata[1] O *D memory_macro
*CAP
1 *804:mem_rdata[1] 0.0287408
2 *803:cpu_mem_rdata[1] 0.00224799
3 *745:10 0.0699266
4 *745:8 0.0434337
5 *804:mem_rdata[1] *756:22 0.0195761
6 *804:mem_rdata[1] *759:17 0.00808263
7 *804:mem_rdata[1] *760:33 0.00231937
8 *804:mem_rdata[1] *761:33 0.000316709
9 *804:mem_rdata[1] *762:21 0.000365864
10 *804:mem_rdata[1] *765:21 0.00114892
11 *804:mem_rdata[1] *801:14 0.000277011
12 *745:8 *803:cpu_mem_we[0] 0
13 *745:10 *788:25 0
14 *745:10 *798:23 0.00862052
15 *745:10 *799:27 0.00430845
16 *46:15 *745:10 0.000449339
17 *127:9 *745:10 0.00644273
18 *609:21 *745:10 0.000249059
19 *727:16 *804:mem_rdata[1] 0.0142696
20 *735:34 *804:mem_rdata[1] 0.000379909
21 *737:36 *804:mem_rdata[1] 0.000379909
22 *741:17 *804:mem_rdata[1] 0.000277011
*RES
1 *803:cpu_mem_rdata[1] *745:8 23.3976 
2 *745:8 *745:10 136.002 
3 *745:10 *804:mem_rdata[1] 32.5063 
*END

*D_NET *746 0.18168
*CONN
*I *804:mem_rdata[20] I *D picorv32_soc
*I *803:cpu_mem_rdata[20] O *D memory_macro
*CAP
1 *804:mem_rdata[20] 0.000319921
2 *803:cpu_mem_rdata[20] 0.0334195
3 *746:19 0.00244713
4 *746:9 0.00804087
5 *746:7 0.00591366
6 *746:5 0.0334195
7 *746:5 *785:18 0
8 *746:9 *754:35 0.0414267
9 *746:9 *757:17 0
10 *746:9 *776:17 0.0397358
11 *746:19 *754:43 0.00060584
12 *746:19 *772:13 1.88299e-05
13 *746:19 *776:13 0.00660852
14 *746:19 *777:17 0
15 *804:mem_rdata[18] *746:19 0.00491669
16 *739:19 *746:9 0.00480739
*RES
1 *803:cpu_mem_rdata[20] *746:5 765.103 
2 *746:5 *746:7 15 
3 *746:7 *746:9 443.7 
4 *746:9 *746:19 46.6189 
5 *746:19 *804:mem_rdata[20] 5.70679 
*END

*D_NET *747 0.196985
*CONN
*I *804:mem_rdata[21] I *D picorv32_soc
*I *803:cpu_mem_rdata[21] O *D memory_macro
*CAP
1 *804:mem_rdata[21] 0.000905365
2 *803:cpu_mem_rdata[21] 0.0234898
3 *747:19 0.00439488
4 *747:15 0.00373236
5 *747:9 0.00899677
6 *747:7 0.00875392
7 *747:5 0.0234898
8 *804:mem_rdata[21] *753:41 0
9 *747:5 *754:31 0.000218886
10 *747:5 *758:13 0.0312282
11 *747:5 *781:13 0
12 *747:9 *748:19 0.0367137
13 *747:9 *767:11 0.00382427
14 *747:9 *777:9 0.00150554
15 *747:9 *793:9 0.0138085
16 *747:19 *749:27 0.00129279
17 *747:19 *750:27 0.00705832
18 *747:19 *769:11 0.00182109
19 *747:19 *782:9 0.0161214
20 *747:19 *787:16 0.00296899
21 *43:9 *747:19 0.00370279
22 *141:9 *747:5 0.00295786
*RES
1 *803:cpu_mem_rdata[21] *747:5 774.259 
2 *747:5 *747:7 15 
3 *747:7 *747:9 400.821 
4 *747:9 *747:15 27.1946 
5 *747:15 *747:19 37.8517 
6 *747:19 *804:mem_rdata[21] 16.9754 
*END

*D_NET *748 0.239318
*CONN
*I *804:mem_rdata[22] I *D picorv32_soc
*I *803:cpu_mem_rdata[22] O *D memory_macro
*CAP
1 *804:mem_rdata[22] 0.000571747
2 *803:cpu_mem_rdata[22] 0.00061459
3 *748:27 0.00413343
4 *748:19 0.0100862
5 *748:17 0.00652455
6 *748:15 0.0188271
7 *748:13 0.0188271
8 *748:11 0.00061459
9 *748:11 *803:cpu_mem_wdata[22] 0.000480729
10 *748:11 *750:11 0.00224152
11 *748:15 *749:15 0.0609277
12 *748:19 *749:19 0.042286
13 *748:19 *767:11 0.000120171
14 *748:19 *771:9 0.00311144
15 *748:19 *773:9 0.000737398
16 *748:19 *775:9 0.000742055
17 *748:19 *777:9 0.000255841
18 *748:27 *749:27 0.00120064
19 *748:27 *751:27 0.00101484
20 *748:27 *752:31 0.000358942
21 *748:27 *752:41 0.00135786
22 *748:27 *753:31 0.000167684
23 *748:27 *753:41 0.000772779
24 *748:27 *755:27 0.000493008
25 *748:27 *769:11 0.000914587
26 *748:27 *771:9 0.00401298
27 *748:27 *773:9 0.00116493
28 *748:27 *775:9 0.000776415
29 *748:27 *777:17 0.000949275
30 *748:27 *788:23 0.00219722
31 *44:5 *804:mem_rdata[22] 0.000266774
32 *63:17 *748:15 0.00788845
33 *101:9 *748:15 0.00429714
34 *138:11 *748:15 0.00250537
35 *139:15 *748:15 0.000360225
36 *139:17 *748:15 0.000258376
37 *529:28 *748:11 0.000544289
38 *682:10 *748:15 0
39 *747:9 *748:19 0.0367137
*RES
1 *803:cpu_mem_rdata[22] *748:11 40.3129 
2 *748:11 *748:13 15 
3 *748:13 *748:15 775.916 
4 *748:15 *748:17 15 
5 *748:17 *748:19 462.281 
6 *748:19 *748:27 46.2176 
7 *748:27 *804:mem_rdata[22] 20.7496 
*END

*D_NET *749 0.29227
*CONN
*I *804:mem_rdata[23] I *D picorv32_soc
*I *803:cpu_mem_rdata[23] O *D memory_macro
*CAP
1 *804:mem_rdata[23] 0.000815591
2 *803:cpu_mem_rdata[23] 0.000184308
3 *749:27 0.00343804
4 *749:19 0.00867839
5 *749:17 0.00605594
6 *749:15 0.00920482
7 *749:13 0.00920482
8 *749:11 0.00170966
9 *749:9 0.00189396
10 *804:mem_rdata[23] *758:27 0
11 *749:11 *751:11 0.00563189
12 *749:11 *754:29 0.000259842
13 *749:15 *750:15 0.0609292
14 *749:15 *751:15 1.09942e-05
15 *749:19 *750:19 0.0439016
16 *749:19 *771:9 0.00457716
17 *749:19 *773:9 0.000833579
18 *749:19 *775:9 0.000909354
19 *749:27 *750:27 0.00931329
20 *749:27 *751:27 0.00732734
21 *749:27 *769:9 0.000156173
22 *749:27 *787:16 0.00156401
23 *101:9 *749:15 0.00457321
24 *138:11 *749:15 0.00286474
25 *139:15 *749:15 0.000404746
26 *683:25 *749:11 0.00211988
27 *747:19 *749:27 0.00129279
28 *748:15 *749:15 0.0609277
29 *748:19 *749:19 0.042286
30 *748:27 *749:27 0.00120064
*RES
1 *803:cpu_mem_rdata[23] *749:9 16.8229 
2 *749:9 *749:11 60.175 
3 *749:11 *749:13 15 
4 *749:13 *749:15 776.62 
5 *749:15 *749:17 15 
6 *749:17 *749:19 479.909 
7 *749:19 *749:27 48.1848 
8 *749:27 *804:mem_rdata[23] 23.5668 
*END

*D_NET *750 0.305966
*CONN
*I *804:mem_rdata[24] I *D picorv32_soc
*I *803:cpu_mem_rdata[24] O *D memory_macro
*CAP
1 *804:mem_rdata[24] 0.000751518
2 *803:cpu_mem_rdata[24] 0.00019085
3 *750:27 0.00314413
4 *750:19 0.00886217
5 *750:17 0.00646955
6 *750:15 0.0091484
7 *750:13 0.0091484
8 *750:11 0.00210737
9 *750:9 0.00229822
10 *750:11 *803:cpu_mem_wdata[22] 0.000176784
11 *750:11 *751:11 0.00901314
12 *750:15 *751:15 0.0608952
13 *750:19 *751:19 0.0461238
14 *750:19 *773:9 0.00531646
15 *750:27 *751:27 0.000612687
16 *750:27 *782:9 0.00184215
17 *750:27 *787:16 0.00173686
18 *43:9 *750:27 0.00325589
19 *43:15 *804:mem_rdata[24] 0.000431352
20 *63:27 *750:15 0.000279534
21 *101:9 *750:15 0.00549676
22 *138:11 *750:15 0.00286474
23 *139:15 *750:15 0.000199814
24 *529:28 *750:11 0.00059652
25 *683:25 *750:11 0.00156007
26 *747:19 *750:27 0.00705832
27 *748:11 *750:11 0.00224152
28 *749:15 *750:15 0.0609292
29 *749:19 *750:19 0.0439016
30 *749:27 *750:27 0.00931329
*RES
1 *803:cpu_mem_rdata[24] *750:9 17.2993 
2 *750:9 *750:11 96.3836 
3 *750:11 *750:13 15 
4 *750:13 *750:15 775.564 
5 *750:15 *750:17 15 
6 *750:17 *750:19 504.206 
7 *750:19 *750:27 46.8369 
8 *750:27 *804:mem_rdata[24] 24.2711 
*END

*D_NET *751 0.287102
*CONN
*I *804:mem_rdata[25] I *D picorv32_soc
*I *803:cpu_mem_rdata[25] O *D memory_macro
*CAP
1 *804:mem_rdata[25] 0.000786126
2 *803:cpu_mem_rdata[25] 0.000116285
3 *751:27 0.00297041
4 *751:19 0.0090269
5 *751:17 0.00684261
6 *751:15 0.0215437
7 *751:13 0.0215437
8 *751:11 0.00252261
9 *751:9 0.00263889
10 *751:11 *803:cpu_mem_wdata[22] 0.000156142
11 *751:19 *752:31 0.0467827
12 *751:19 *753:31 4.05745e-05
13 *751:19 *758:17 2.94414e-05
14 *751:19 *773:9 0.00672051
15 *751:27 *752:41 0.00666989
16 *751:27 *782:9 0.000117085
17 *751:27 *783:9 0.000106251
18 *751:27 *787:16 0.0010842
19 *63:27 *751:15 0.000624424
20 *101:9 *751:15 0.0125789
21 *138:11 *751:15 0.00499617
22 *139:15 *751:15 0.000342844
23 *529:28 *751:11 0
24 *683:25 *751:11 0.00291285
25 *687:30 *751:9 0.000221587
26 *687:30 *751:11 0.00509749
27 *748:27 *751:27 0.00101484
28 *749:11 *751:11 0.00563189
29 *749:15 *751:15 1.09942e-05
30 *749:27 *751:27 0.00732734
31 *750:11 *751:11 0.00901314
32 *750:15 *751:15 0.0608952
33 *750:19 *751:19 0.0461238
34 *750:27 *751:27 0.000612687
*RES
1 *803:cpu_mem_rdata[25] *751:9 17.2993 
2 *751:9 *751:11 133.069 
3 *751:11 *751:13 15 
4 *751:13 *751:15 775.564 
5 *751:15 *751:17 15 
6 *751:17 *751:19 524.216 
7 *751:19 *751:27 44.149 
8 *751:27 *804:mem_rdata[25] 22.8625 
*END

*D_NET *752 0.320673
*CONN
*I *804:mem_rdata[26] I *D picorv32_soc
*I *803:cpu_mem_rdata[26] O *D memory_macro
*CAP
1 *804:mem_rdata[26] 0.000760142
2 *803:cpu_mem_rdata[26] 0.0011097
3 *752:41 0.00257702
4 *752:31 0.00875481
5 *752:29 0.00693793
6 *752:27 0.00929135
7 *752:25 0.0160813
8 *752:15 0.0078997
9 *752:25 *803:cpu_mem_wdata[22] 6.02606e-05
10 *752:25 *753:25 0.0180385
11 *752:27 *753:27 0.000568145
12 *752:27 *755:13 0.0598491
13 *752:27 *780:13 0.000481311
14 *752:27 *782:13 0.05971
15 *752:31 *753:31 0.0494812
16 *752:31 *775:9 0.00744759
17 *752:41 *753:41 0.00523069
18 *752:41 *783:9 0
19 *752:41 *788:23 0.00089994
20 *803:mem_rdata[8] *752:25 0.00487557
21 *141:9 *752:27 0.00526599
22 *546:25 *752:15 9.14695e-05
23 *614:17 *752:15 9.14695e-05
24 *748:27 *752:31 0.000358942
25 *748:27 *752:41 0.00135786
26 *751:19 *752:31 0.0467827
27 *751:27 *752:41 0.00666989
*RES
1 *803:cpu_mem_rdata[26] *752:15 28.6536 
2 *752:15 *752:25 42.4846 
3 *752:25 *752:27 775.388 
4 *752:27 *752:29 15 
5 *752:29 *752:31 540.415 
6 *752:31 *752:41 48.5339 
7 *752:41 *804:mem_rdata[26] 14.1582 
*END

*D_NET *753 0.337828
*CONN
*I *804:mem_rdata[27] I *D picorv32_soc
*I *803:cpu_mem_rdata[27] O *D memory_macro
*CAP
1 *804:mem_rdata[27] 0.000701705
2 *803:cpu_mem_rdata[27] 0.0010304
3 *753:41 0.0023476
4 *753:31 0.00891558
5 *753:29 0.00726968
6 *753:27 0.00925508
7 *753:25 0.0138488
8 *753:15 0.00562412
9 *753:25 *803:cpu_mem_wdata[22] 6.42598e-05
10 *753:25 *754:19 0.000144688
11 *753:25 *754:29 0.0211323
12 *753:27 *754:31 0.000422994
13 *753:27 *781:13 0.0599949
14 *753:27 *782:13 0.0596868
15 *753:31 *755:17 0.0518323
16 *753:31 *758:17 6.08617e-05
17 *753:31 *775:9 0.00917439
18 *753:41 *755:27 0.00297939
19 *753:41 *779:7 0
20 *753:41 *788:23 0.00110395
21 *803:mem_rdata[8] *753:25 0.00380902
22 *804:mem_rdata[21] *753:41 0
23 *141:9 *753:27 0.003947
24 *546:25 *753:15 9.14695e-05
25 *614:17 *753:15 9.14695e-05
26 *748:27 *753:31 0.000167684
27 *748:27 *753:41 0.000772779
28 *751:19 *753:31 4.05745e-05
29 *752:25 *753:25 0.0180385
30 *752:27 *753:27 0.000568145
31 *752:31 *753:31 0.0494812
32 *752:41 *753:41 0.00523069
*RES
1 *803:cpu_mem_rdata[27] *753:15 28.5267 
2 *753:15 *753:25 48.7118 
3 *753:25 *753:27 775.035 
4 *753:27 *753:29 15 
5 *753:29 *753:31 567.571 
6 *753:31 *753:41 45.5199 
7 *753:41 *804:mem_rdata[27] 13.4539 
*END

*D_NET *754 0.306785
*CONN
*I *804:mem_rdata[28] I *D picorv32_soc
*I *803:cpu_mem_rdata[28] O *D memory_macro
*CAP
1 *804:mem_rdata[28] 0.000215396
2 *803:cpu_mem_rdata[28] 0.00240947
3 *754:43 0.00436468
4 *754:35 0.018008
5 *754:33 0.0138587
6 *754:31 0.00920561
7 *754:29 0.013863
8 *754:19 0.00706685
9 *754:29 *803:cpu_mem_wdata[22] 0.000806677
10 *754:31 *758:13 0.0593492
11 *754:31 *781:13 0.0594161
12 *754:35 *757:17 0
13 *754:35 *766:9 0
14 *754:35 *770:9 0.00450082
15 *754:35 *776:17 2.50118e-05
16 *754:35 *792:9 0.0125014
17 *754:35 *798:11 0
18 *754:43 *804:mem_rdata[30] 0.0123139
19 *754:43 *774:15 0.00172237
20 *754:43 *777:17 0
21 *754:43 *798:19 0.000343386
22 *803:mem_rdata[8] *754:29 0.00263051
23 *804:mem_rdata[18] *754:43 0.000263719
24 *44:9 *754:43 0.001886
25 *141:9 *754:31 0.00287079
26 *614:17 *754:19 0.00124935
27 *683:25 *754:19 0.00256417
28 *683:25 *754:29 0.010044
29 *685:18 *754:19 0
30 *687:30 *754:19 0.000982986
31 *739:19 *754:35 0.000111919
32 *746:9 *754:35 0.0414267
33 *746:19 *754:43 0.00060584
34 *747:5 *754:31 0.000218886
35 *749:11 *754:29 0.000259842
36 *753:25 *754:19 0.000144688
37 *753:25 *754:29 0.0211323
38 *753:27 *754:31 0.000422994
*RES
1 *803:cpu_mem_rdata[28] *754:19 35.5528 
2 *754:19 *754:29 47.898 
3 *754:29 *754:31 767.64 
4 *754:31 *754:33 15 
5 *754:33 *754:35 506.589 
6 *754:35 *754:43 48.2784 
7 *754:43 *804:mem_rdata[28] 11.5939 
*END

*D_NET *755 0.338396
*CONN
*I *804:mem_rdata[29] I *D picorv32_soc
*I *803:cpu_mem_rdata[29] O *D memory_macro
*CAP
1 *804:mem_rdata[29] 0.000617299
2 *803:cpu_mem_rdata[29] 0.000572881
3 *755:27 0.00293976
4 *755:17 0.00916458
5 *755:15 0.00684213
6 *755:13 0.00881912
7 *755:11 0.00881912
8 *755:9 0.00880685
9 *755:7 0.00937973
10 *755:9 *757:9 0.0268606
11 *755:9 *790:17 0.00581924
12 *755:13 *780:13 0.059847
13 *755:17 *758:17 0.0520853
14 *755:17 *763:31 0.00290475
15 *755:17 *775:9 0.00308833
16 *755:17 *777:17 0.00270664
17 *755:27 *758:27 0.00622589
18 *755:27 *777:17 0.000760094
19 *755:27 *779:7 6.34668e-05
20 *755:27 *788:23 0.00196364
21 *33:9 *755:13 0.0020378
22 *44:5 *755:27 0
23 *141:9 *755:13 0.00291753
24 *748:27 *755:27 0.000493008
25 *752:27 *755:13 0.0598491
26 *753:31 *755:17 0.0518323
27 *753:41 *755:27 0.00297939
*RES
1 *803:cpu_mem_rdata[29] *755:7 25.8129 
2 *755:7 *755:9 293.625 
3 *755:9 *755:11 15 
4 *755:11 *755:13 761.126 
5 *755:13 *755:15 15 
6 *755:15 *755:17 569.001 
7 *755:17 *755:27 48.0699 
8 *755:27 *804:mem_rdata[29] 12.0454 
*END

*D_NET *756 0.234088
*CONN
*I *804:mem_rdata[2] I *D picorv32_soc
*I *803:cpu_mem_rdata[2] O *D memory_macro
*CAP
1 *804:mem_rdata[2] 0.000672424
2 *803:cpu_mem_rdata[2] 0.0088517
3 *756:22 0.0190281
4 *756:20 0.0183557
5 *756:18 0.0135384
6 *756:16 0.0146859
7 *756:10 0.00999919
8 *756:10 *803:cpu_mem_wdata[2] 2.60531e-05
9 *756:18 *800:13 0.0475687
10 *756:22 *759:17 0.0515535
11 *756:22 *760:33 0.00373075
12 *756:22 *765:21 0.000985632
13 *804:mem_rdata[1] *756:22 0.0195761
14 *97:8 *756:18 0.000783775
15 *126:11 *756:18 0.0151552
16 *546:19 *756:10 6.07327e-06
17 *725:23 *756:18 0
18 *727:18 *756:18 0.00900053
19 *735:34 *804:mem_rdata[2] 0.000285253
20 *737:36 *804:mem_rdata[2] 0.000285253
*RES
1 *803:cpu_mem_rdata[2] *756:10 43.1917 
2 *756:10 *756:16 19.5336 
3 *756:16 *756:18 603.718 
4 *756:18 *756:20 8 
5 *756:20 *756:22 98.5021 
6 *756:22 *804:mem_rdata[2] 25.7267 
*END

*D_NET *757 0.286024
*CONN
*I *804:mem_rdata[30] I *D picorv32_soc
*I *803:cpu_mem_rdata[30] O *D memory_macro
*CAP
1 *804:mem_rdata[30] 0.00363164
2 *803:cpu_mem_rdata[30] 0.000542211
3 *757:23 0.00382207
4 *757:17 0.0187151
5 *757:15 0.0185247
6 *757:13 0.0208876
7 *757:11 0.0208876
8 *757:9 0.0047273
9 *757:7 0.00526951
10 *804:mem_rdata[30] *798:19 0.0144644
11 *757:9 *758:9 0.0299195
12 *757:9 *790:17 0.0004875
13 *757:13 *780:13 0.0595678
14 *757:17 *758:17 0
15 *757:17 *764:19 0.00344867
16 *757:17 *766:9 0.00553693
17 *757:17 *772:13 0.000789406
18 *757:17 *772:17 0.0177962
19 *757:17 *774:17 0.000412943
20 *757:17 *776:13 0.000594389
21 *757:17 *776:17 0
22 *757:17 *794:9 0.000104089
23 *757:23 *773:7 0.000124097
24 *33:9 *757:13 0.00452991
25 *44:9 *804:mem_rdata[30] 0.000464768
26 *141:9 *757:13 0.00436655
27 *685:18 *757:9 0.00526014
28 *742:9 *757:17 0.00182551
29 *743:9 *757:17 0.000148876
30 *744:9 *757:17 0
31 *746:9 *757:17 0
32 *754:35 *757:17 0
33 *754:43 *804:mem_rdata[30] 0.0123139
34 *755:9 *757:9 0.0268606
*RES
1 *803:cpu_mem_rdata[30] *757:7 25.4607 
2 *757:7 *757:9 330.786 
3 *757:9 *757:11 15 
4 *757:11 *757:13 757.604 
5 *757:13 *757:15 15 
6 *757:15 *757:17 510.876 
7 *757:17 *757:23 26.8425 
8 *757:23 *804:mem_rdata[30] 38.5947 
*END

*D_NET *758 0.304537
*CONN
*I *804:mem_rdata[31] I *D picorv32_soc
*I *803:cpu_mem_rdata[31] O *D memory_macro
*CAP
1 *804:mem_rdata[31] 0.000580273
2 *803:cpu_mem_rdata[31] 0.000498108
3 *758:27 0.00274987
4 *758:17 0.0205285
5 *758:15 0.0183589
6 *758:13 0.0107235
7 *758:11 0.0107235
8 *758:9 0.0114772
9 *758:7 0.0119753
10 *758:9 *790:17 0.000844515
11 *758:13 *781:13 0.000271264
12 *758:17 *763:31 0.00334529
13 *758:17 *775:9 0.00235104
14 *758:17 *777:17 0.00471072
15 *758:27 *777:17 0.00037986
16 *758:27 *781:7 5.01309e-05
17 *758:27 *788:23 0.00178584
18 *804:mem_rdata[23] *758:27 0
19 *43:19 *758:27 0.00772504
20 *141:9 *758:13 0.00293206
21 *685:18 *758:9 0.0136281
22 *747:5 *758:13 0.0312282
23 *751:19 *758:17 2.94414e-05
24 *753:31 *758:17 6.08617e-05
25 *754:31 *758:13 0.0593492
26 *755:17 *758:17 0.0520853
27 *755:27 *758:27 0.00622589
28 *757:9 *758:9 0.0299195
29 *757:17 *758:17 0
*RES
1 *803:cpu_mem_rdata[31] *758:7 25.1086 
2 *758:7 *758:9 363.184 
3 *758:9 *758:11 15 
4 *758:11 *758:13 761.478 
5 *758:13 *758:15 15 
6 *758:15 *758:17 592.822 
7 *758:17 *758:27 48.0612 
8 *758:27 *804:mem_rdata[31] 11.3411 
*END

*D_NET *759 0.22655
*CONN
*I *804:mem_rdata[3] I *D picorv32_soc
*I *803:cpu_mem_rdata[3] O *D memory_macro
*CAP
1 *804:mem_rdata[3] 0.000632439
2 *803:cpu_mem_rdata[3] 0.00607338
3 *759:17 0.0168989
4 *759:15 0.0162665
5 *759:13 0.008835
6 *759:11 0.0129983
7 *759:5 0.0102367
8 *759:13 *791:13 0.0483461
9 *759:13 *799:27 0.0251743
10 *759:17 *765:21 0.00961365
11 *759:17 *784:11 0
12 *759:17 *786:12 0
13 *759:17 *787:16 0
14 *759:17 *799:19 0
15 *759:17 *799:25 0
16 *804:io_in[15] *759:17 0
17 *804:mem_rdata[1] *759:17 0.00808263
18 *112:8 *759:17 0
19 *126:17 *759:17 1.78614e-05
20 *127:9 *759:13 0.00254158
21 *129:19 *759:17 0.000574501
22 *727:16 *804:mem_rdata[3] 1.37717e-05
23 *727:24 *759:11 0.0071093
24 *735:34 *804:mem_rdata[3] 0.000135094
25 *737:36 *804:mem_rdata[3] 0.000135094
26 *741:17 *759:17 0.00131183
27 *756:22 *759:17 0.0515535
*RES
1 *803:cpu_mem_rdata[3] *759:5 138.113 
2 *759:5 *759:11 33.9163 
3 *759:11 *759:13 615.691 
4 *759:13 *759:15 8 
5 *759:15 *759:17 96.4413 
6 *759:17 *804:mem_rdata[3] 25.3421 
*END

*D_NET *760 0.249476
*CONN
*I *804:mem_rdata[4] I *D picorv32_soc
*I *803:cpu_mem_rdata[4] O *D memory_macro
*CAP
1 *804:mem_rdata[4] 0
2 *803:cpu_mem_rdata[4] 0.00607348
3 *760:33 0.00628177
4 *760:21 0.0136153
5 *760:19 0.0073335
6 *760:17 0.00415685
7 *760:15 0.00415685
8 *760:13 0.00411876
9 *760:5 0.0101922
10 *760:13 *762:9 0.00352812
11 *760:17 *792:17 0.0271521
12 *760:21 *762:13 0.0480825
13 *760:33 *762:21 0.00046743
14 *760:33 *765:21 0.00197026
15 *760:33 *799:11 0.000111701
16 *760:33 *801:14 0
17 *803:cpu_mem_addr[7] *760:13 0.000166181
18 *804:mem_rdata[1] *760:33 0.00231937
19 *67:9 *760:21 0.000668827
20 *68:11 *760:21 0.000728523
21 *69:9 *760:21 0.000514266
22 *70:9 *760:21 0.00212773
23 *728:19 *760:17 0.0289827
24 *728:41 *760:13 0.0028012
25 *728:45 *760:13 4.03335e-05
26 *729:15 *760:21 0.0480825
27 *729:29 *760:13 0.0106106
28 *730:14 *760:21 0.00276046
29 *730:26 *760:13 0.000956771
30 *731:27 *760:17 0.00677081
31 *735:34 *760:33 0.000486904
32 *737:36 *760:33 0.000486904
33 *756:22 *760:33 0.00373075
*RES
1 *803:cpu_mem_rdata[4] *760:5 137.408 
2 *760:5 *760:13 44.5075 
3 *760:13 *760:15 15 
4 *760:15 *760:17 317.446 
5 *760:17 *760:19 15 
6 *760:19 *760:21 612.698 
7 *760:21 *760:33 47.5051 
8 *760:33 *804:mem_rdata[4] 8 
*END

*D_NET *761 0.216659
*CONN
*I *804:mem_rdata[5] I *D picorv32_soc
*I *803:cpu_mem_rdata[5] O *D memory_macro
*CAP
1 *804:mem_rdata[5] 0
2 *803:cpu_mem_rdata[5] 0.00602312
3 *761:33 0.00336011
4 *761:21 0.0202333
5 *761:19 0.0168731
6 *761:17 0.00343698
7 *761:15 0.00343698
8 *761:13 0.00337274
9 *761:5 0.00939586
10 *761:13 *762:9 0.00015779
11 *761:13 *764:5 2.79482e-05
12 *761:13 *764:9 0.000122056
13 *761:13 *793:27 0.0142348
14 *761:17 *762:9 0.0049134
15 *761:17 *793:17 0.0179477
16 *761:33 *762:21 0.0130327
17 *761:33 *801:14 0.0099895
18 *804:mem_rdata[1] *761:33 0.000316709
19 *61:17 *761:21 0
20 *137:11 *761:21 0
21 *727:16 *761:33 0.000121157
22 *729:19 *761:17 0.0216151
23 *729:29 *761:13 0.0136895
24 *730:26 *761:13 0.00272652
25 *731:23 *761:21 0.0485419
26 *732:13 *761:21 2.07642e-05
27 *732:17 *761:13 0.000936801
28 *735:34 *761:33 0.000263666
29 *737:36 *761:33 0.000263666
30 *738:23 *761:21 0
31 *741:17 *761:33 0.00160557
*RES
1 *803:cpu_mem_rdata[5] *761:5 136 
2 *761:5 *761:13 48.3802 
3 *761:13 *761:15 15 
4 *761:15 *761:17 235.977 
5 *761:17 *761:19 15 
6 *761:19 *761:21 617.275 
7 *761:21 *761:33 49.5323 
8 *761:33 *804:mem_rdata[5] 8 
*END

*D_NET *762 0.234035
*CONN
*I *804:mem_rdata[6] I *D picorv32_soc
*I *803:cpu_mem_rdata[6] O *D memory_macro
*CAP
1 *804:mem_rdata[6] 0.000144288
2 *803:cpu_mem_rdata[6] 0.00615769
3 *762:21 0.004048
4 *762:13 0.0212365
5 *762:11 0.0173327
6 *762:9 0.00700459
7 *762:7 0.00700459
8 *762:5 0.00615769
9 *762:9 *763:19 0.000358698
10 *762:9 *792:33 2.67626e-06
11 *762:9 *793:17 0.00810295
12 *762:9 *794:17 0.0325716
13 *762:13 *796:13 0
14 *762:21 *765:21 0.0128604
15 *762:21 *801:14 0.000333831
16 *804:mem_rdata[1] *762:21 0.000365864
17 *67:9 *762:13 0.000736363
18 *68:11 *762:13 0.000642562
19 *69:9 *762:13 0.000592995
20 *70:9 *762:13 0.00190301
21 *727:16 *762:21 0.000412161
22 *728:41 *762:9 0.000660765
23 *729:15 *762:13 0.000132162
24 *729:29 *762:9 0.00237235
25 *730:14 *762:13 0.00276226
26 *730:26 *762:9 0.00412549
27 *732:17 *762:9 0.0247497
28 *735:34 *804:mem_rdata[6] 0.000332571
29 *737:36 *804:mem_rdata[6] 0.000332571
30 *741:17 *762:21 0.000416066
31 *760:13 *762:9 0.00352812
32 *760:21 *762:13 0.0480825
33 *760:33 *762:21 0.00046743
34 *761:13 *762:9 0.00015779
35 *761:17 *762:9 0.0049134
36 *761:33 *762:21 0.0130327
*RES
1 *803:cpu_mem_rdata[6] *762:5 138.113 
2 *762:5 *762:7 8 
3 *762:7 *762:9 63.7691 
4 *762:9 *762:11 8 
5 *762:11 *762:13 617.099 
6 *762:13 *762:21 44.6515 
7 *762:21 *804:mem_rdata[6] 16.6141 
*END

*D_NET *763 0.222187
*CONN
*I *804:mem_rdata[7] I *D picorv32_soc
*I *803:cpu_mem_rdata[7] O *D memory_macro
*CAP
1 *804:mem_rdata[7] 0.00064461
2 *803:cpu_mem_rdata[7] 0.00613414
3 *763:31 0.00346411
4 *763:25 0.0104401
5 *763:23 0.00762064
6 *763:21 0.00715448
7 *763:19 0.00873443
8 *763:5 0.00771408
9 *763:19 *792:27 2.48355e-05
10 *763:25 *797:13 0
11 *763:31 *768:11 0.0161056
12 *763:31 *775:9 0.0161056
13 *804:io_in[3] *763:25 0.000779935
14 *804:mem_rdata[15] *763:31 0.00258618
15 *79:8 *763:25 0.0015233
16 *79:10 *763:21 7.20213e-06
17 *540:37 *763:21 0.000100561
18 *540:44 *763:21 0.00954783
19 *729:29 *763:19 0.000358698
20 *730:26 *763:19 0.000166435
21 *730:26 *763:21 0.00199373
22 *731:27 *763:19 0.00343451
23 *731:27 *763:21 0.0130649
24 *732:13 *763:25 0.0490155
25 *737:28 *763:25 0.0486556
26 *739:15 *763:25 0.000200786
27 *755:17 *763:31 0.00290475
28 *758:17 *763:31 0.00334529
29 *762:9 *763:19 0.000358698
*RES
1 *803:cpu_mem_rdata[7] *763:5 137.408 
2 *763:5 *763:19 34.1693 
3 *763:19 *763:21 45.3507 
4 *763:21 *763:23 8 
5 *763:23 *763:25 630.481 
6 *763:25 *763:31 45.7659 
7 *763:31 *804:mem_rdata[7] 9.9325 
*END

*D_NET *764 0.188657
*CONN
*I *804:mem_rdata[8] I *D picorv32_soc
*I *803:cpu_mem_rdata[8] O *D memory_macro
*CAP
1 *804:mem_rdata[8] 0.00043216
2 *803:cpu_mem_rdata[8] 0.00609577
3 *764:19 0.00371679
4 *764:13 0.0277493
5 *764:11 0.0244647
6 *764:9 0.00414459
7 *764:5 0.0102404
8 *764:9 *765:11 0.0182539
9 *764:9 *793:27 0.00180192
10 *764:19 *772:13 0.00236102
11 *764:19 *794:9 0.0141432
12 *804:io_in[3] *764:13 0
13 *804:mem_rdata[15] *764:19 0.00297971
14 *79:8 *764:13 0
15 *730:26 *764:9 0.00382631
16 *732:17 *764:9 0.022127
17 *733:10 *764:13 0.0260542
18 *736:30 *764:19 0.0164273
19 *738:27 *764:19 0.000240408
20 *757:17 *764:19 0.00344867
21 *761:13 *764:5 2.79482e-05
22 *761:13 *764:9 0.000122056
*RES
1 *803:cpu_mem_rdata[8] *764:5 136.704 
2 *764:5 *764:9 48.9715 
3 *764:9 *764:11 8 
4 *764:11 *764:13 113.788 
5 *764:13 *764:19 47.3544 
6 *764:19 *804:mem_rdata[8] 6.41107 
*END

*D_NET *765 0.162883
*CONN
*I *804:mem_rdata[9] I *D picorv32_soc
*I *803:cpu_mem_rdata[9] O *D memory_macro
*CAP
1 *804:mem_rdata[9] 0.000125772
2 *803:cpu_mem_rdata[9] 0.00606325
3 *765:21 0.00432938
4 *765:13 0.0278
5 *765:11 0.0301956
6 *765:5 0.0126624
7 *804:mem_rdata[9] *786:14 0.000228207
8 *765:11 *793:27 0.000500683
9 *804:mem_rdata[1] *765:21 0.00114892
10 *724:10 *765:13 0
11 *727:16 *804:mem_rdata[9] 0.000150136
12 *730:26 *765:11 0.00768158
13 *733:10 *765:13 0.0258834
14 *735:34 *804:mem_rdata[9] 0.000616541
15 *737:36 *804:mem_rdata[9] 0.000616541
16 *741:17 *765:21 0.00119635
17 *756:22 *765:21 0.000985632
18 *759:17 *765:21 0.00961365
19 *760:33 *765:21 0.00197026
20 *762:21 *765:21 0.0128604
21 *764:9 *765:11 0.0182539
*RES
1 *803:cpu_mem_rdata[9] *765:5 136 
2 *765:5 *765:11 49.7587 
3 *765:11 *765:13 111.503 
4 *765:13 *765:21 48.5995 
5 *765:21 *804:mem_rdata[9] 17.1293 
*END

*D_NET *766 0.236735
*CONN
*I *803:cpu_mem_wdata[0] I *D memory_macro
*I *804:mem_wdata[0] O *D picorv32_soc
*CAP
1 *803:cpu_mem_wdata[0] 4.67136e-05
2 *804:mem_wdata[0] 0.000396575
3 *766:27 0.0365524
4 *766:25 0.0727731
5 *766:9 0.0403344
6 *766:7 0.00446362
7 *766:9 *772:17 0.0122265
8 *766:9 *774:17 0.00216292
9 *766:9 *776:13 0.00019952
10 *766:9 *776:17 6.03227e-05
11 *766:25 *772:13 5.10545e-05
12 *766:25 *775:9 0.000195598
13 *766:25 *777:17 0.00416069
14 *766:25 *788:23 0.0251751
15 *804:mem_rdata[18] *766:9 0.000167182
16 *43:19 *766:25 0.00240342
17 *49:15 *766:27 0.00131025
18 *56:15 *766:27 0
19 *91:9 *766:27 0.0089036
20 *736:30 *766:9 0.00372925
21 *742:9 *766:9 0.0142719
22 *742:17 *766:25 0.000489924
23 *743:9 *766:9 1.21972e-05
24 *744:9 *766:9 0.000335492
25 *744:19 *766:25 0.000775957
26 *754:35 *766:9 0
27 *757:17 *766:9 0.00553693
*RES
1 *804:mem_wdata[0] *766:7 20.8829 
2 *766:7 *766:9 237.883 
3 *766:9 *766:25 44.8999 
4 *766:25 *766:27 138.794 
5 *766:27 *803:cpu_mem_wdata[0] 16.0989 
*END

*D_NET *767 0.210417
*CONN
*I *803:cpu_mem_wdata[10] I *D memory_macro
*I *804:mem_wdata[10] O *D picorv32_soc
*CAP
1 *803:cpu_mem_wdata[10] 0.000368598
2 *804:mem_wdata[10] 0.00088202
3 *767:25 0.00423725
4 *767:13 0.0259276
5 *767:11 0.0265191
6 *767:7 0.00534217
7 *803:cpu_mem_wdata[10] *803:cpu_mem_wdata[9] 0.00162246
8 *803:cpu_mem_wdata[10] *796:17 0.00162246
9 *767:11 *769:11 0.00235251
10 *767:11 *771:9 0.0218552
11 *767:11 *773:9 0.00034259
12 *767:11 *782:9 0
13 *767:11 *788:23 0.00186671
14 *767:11 *793:9 0.00256491
15 *767:11 *795:11 0.017395
16 *767:13 *768:15 0.000240708
17 *767:13 *770:13 0.060085
18 *767:25 *803:cpu_mem_wdata[12] 0.00184798
19 *767:25 *768:31 0.000681827
20 *767:25 *770:27 7.53071e-05
21 *767:25 *796:17 0.000250629
22 *804:mem_rdata[15] *767:11 0.000926706
23 *584:19 *767:25 3.09609e-05
24 *735:22 *767:25 0.0130944
25 *736:14 *767:25 0.00218168
26 *737:18 *767:25 0.00716745
27 *740:10 *767:13 0.00699154
28 *741:13 *767:13 0
29 *747:9 *767:11 0.00382427
30 *748:19 *767:11 0.000120171
*RES
1 *804:mem_wdata[10] *767:7 20.7496 
2 *767:7 *767:11 49.7013 
3 *767:11 *767:13 776.268 
4 *767:13 *767:25 45.0099 
5 *767:25 *803:cpu_mem_wdata[10] 19.1043 
*END

*D_NET *768 0.218563
*CONN
*I *803:cpu_mem_wdata[11] I *D memory_macro
*I *804:mem_wdata[11] O *D picorv32_soc
*CAP
1 *803:cpu_mem_wdata[11] 0
2 *804:mem_wdata[11] 0.000610576
3 *768:31 0.00351717
4 *768:15 0.0151882
5 *768:13 0.011671
6 *768:11 0.00539029
7 *768:9 0.00600087
8 *768:9 *774:15 6.86581e-05
9 *768:11 *770:9 0
10 *768:11 *775:9 0.00142685
11 *768:11 *777:17 0.00478797
12 *768:11 *794:9 0.000272437
13 *768:15 *770:13 0.060085
14 *768:15 *786:18 0
15 *768:15 *801:18 0.0496738
16 *768:31 *803:cpu_mem_wdata[12] 0.00124037
17 *768:31 *803:cpu_mem_wdata[9] 0.00127959
18 *768:31 *770:27 0.000301933
19 *768:31 *796:17 0.00555366
20 *804:mem_rdata[11] *768:9 0
21 *804:mem_rdata[15] *768:11 0.00405091
22 *73:9 *768:15 0.000406399
23 *584:19 *768:31 0.000633919
24 *736:14 *768:31 0.00936179
25 *738:27 *768:11 0.00970395
26 *740:10 *768:15 0.00628205
27 *742:17 *768:11 0.00402724
28 *763:31 *768:11 0.0161056
29 *767:13 *768:15 0.000240708
30 *767:25 *768:31 0.000681827
*RES
1 *804:mem_wdata[11] *768:9 17.8496 
2 *768:9 *768:11 43.848 
3 *768:11 *768:13 8 
4 *768:13 *768:15 773.451 
5 *768:15 *768:31 48.3973 
6 *768:31 *803:cpu_mem_wdata[11] 8 
*END

*D_NET *769 0.203969
*CONN
*I *803:cpu_mem_wdata[12] I *D memory_macro
*I *804:mem_wdata[12] O *D picorv32_soc
*CAP
1 *803:cpu_mem_wdata[12] 0.00697416
2 *804:mem_wdata[12] 0.000919842
3 *769:15 0.0442355
4 *769:13 0.0372613
5 *769:11 0.00699434
6 *769:9 0.00791419
7 *803:cpu_mem_wdata[12] *803:cpu_mem_wdata[9] 0.000633771
8 *769:11 *771:9 0.000164169
9 *769:11 *782:9 0.00312307
10 *769:11 *788:23 0.00221026
11 *769:11 *795:11 0.0173908
12 *769:15 *771:13 0.0117449
13 *769:15 *792:13 0.00711252
14 *769:15 *793:13 0.00827881
15 *769:15 *794:13 0.00646019
16 *769:15 *796:13 0.0138929
17 *804:mem_rdata[15] *769:11 0.000655337
18 *67:9 *769:15 0.00731197
19 *68:11 *769:15 0
20 *143:9 *769:15 0.00690873
21 *584:19 *803:cpu_mem_wdata[12] 0.000311671
22 *730:14 *769:15 0
23 *735:22 *803:cpu_mem_wdata[12] 0.0024966
24 *736:14 *803:cpu_mem_wdata[12] 0.00132045
25 *737:18 *803:cpu_mem_wdata[12] 0.00132045
26 *740:10 *769:15 0
27 *744:19 *769:9 0
28 *747:19 *769:11 0.00182109
29 *748:27 *769:11 0.000914587
30 *749:27 *769:9 0.000156173
31 *767:11 *769:11 0.00235251
32 *767:25 *803:cpu_mem_wdata[12] 0.00184798
33 *768:31 *803:cpu_mem_wdata[12] 0.00124037
*RES
1 *804:mem_wdata[12] *769:9 22.7796 
2 *769:9 *769:11 44.492 
3 *769:11 *769:13 8 
4 *769:13 *769:15 140.825 
5 *769:15 *803:cpu_mem_wdata[12] 21.5592 
*END

*D_NET *770 0.22116
*CONN
*I *803:cpu_mem_wdata[13] I *D memory_macro
*I *804:mem_wdata[13] O *D picorv32_soc
*CAP
1 *803:cpu_mem_wdata[13] 0.000159472
2 *804:mem_wdata[13] 0.000173186
3 *770:29 0.00121948
4 *770:27 0.00173926
5 *770:13 0.00986347
6 *770:11 0.00918423
7 *770:9 0.00750024
8 *770:7 0.00767343
9 *770:9 *791:9 0.00145501
10 *770:9 *792:9 0.00261407
11 *770:9 *794:9 0
12 *770:9 *798:19 0.00346499
13 *770:27 *796:17 0.000247078
14 *770:29 *803:cpu_mem_wdata[14] 0.000177477
15 *770:29 *803:cpu_mem_wdata[9] 0.000532595
16 *529:28 *770:29 0.00071676
17 *584:19 *770:27 0.000799561
18 *730:12 *770:9 0.000112205
19 *732:9 *770:9 0.0167175
20 *735:22 *770:27 9.19483e-05
21 *736:24 *770:27 0.00010928
22 *736:30 *770:9 0.000137147
23 *738:11 *770:29 0.000592607
24 *738:21 *770:29 0.0003802
25 *738:23 *770:27 6.85548e-05
26 *739:13 *770:29 0.000780199
27 *739:19 *770:9 0.0230287
28 *740:8 *770:27 5.25168e-05
29 *740:10 *770:13 0.0065207
30 *741:17 *770:9 0
31 *754:35 *770:9 0.00450082
32 *767:13 *770:13 0.060085
33 *767:25 *770:27 7.53071e-05
34 *768:11 *770:9 0
35 *768:15 *770:13 0.060085
36 *768:31 *770:27 0.000301933
*RES
1 *804:mem_wdata[13] *770:7 10.8896 
2 *770:7 *770:9 47.9696 
3 *770:9 *770:11 8 
4 *770:11 *770:13 765.704 
5 *770:13 *770:27 35.068 
6 *770:27 *770:29 39.6886 
7 *770:29 *803:cpu_mem_wdata[13] 17.2993 
*END

*D_NET *771 0.224041
*CONN
*I *803:cpu_mem_wdata[14] I *D memory_macro
*I *804:mem_wdata[14] O *D picorv32_soc
*CAP
1 *803:cpu_mem_wdata[14] 0.000587622
2 *804:mem_wdata[14] 0.000781894
3 *771:13 0.0123426
4 *771:11 0.011755
5 *771:9 0.00486055
6 *771:7 0.00564245
7 *771:9 *773:9 0.0263009
8 *771:9 *788:23 0.00386486
9 *771:13 *793:13 0.0497762
10 *771:13 *796:13 0.0606766
11 *804:mem_rdata[15] *771:7 0
12 *804:mem_rdata[15] *771:9 0.000749252
13 *529:28 *803:cpu_mem_wdata[14] 0.00105991
14 *741:13 *771:13 0
15 *748:19 *771:9 0.00311144
16 *748:27 *771:9 0.00401298
17 *749:19 *771:9 0.00457716
18 *767:11 *771:9 0.0218552
19 *769:11 *771:9 0.000164169
20 *769:15 *771:13 0.0117449
21 *770:29 *803:cpu_mem_wdata[14] 0.000177477
*RES
1 *804:mem_wdata[14] *771:7 20.0454 
2 *771:7 *771:9 48.7424 
3 *771:9 *771:11 8 
4 *771:11 *771:13 774.331 
5 *771:13 *803:cpu_mem_wdata[14] 43.8786 
*END

*D_NET *772 0.136491
*CONN
*I *803:cpu_mem_wdata[15] I *D memory_macro
*I *804:mem_wdata[15] O *D picorv32_soc
*CAP
1 *803:cpu_mem_wdata[15] 0.0337679
2 *804:mem_wdata[15] 0.00328552
3 *772:19 0.0337679
4 *772:17 0.00264126
5 *772:15 0.00264126
6 *772:13 0.00328552
7 *772:13 *774:15 6.22155e-06
8 *772:13 *776:13 0.00224771
9 *804:mem_rdata[15] *772:13 0.00262022
10 *804:mem_rdata[18] *772:13 0.000586584
11 *35:9 *803:cpu_mem_wdata[15] 0.00153093
12 *736:30 *772:13 0.00161075
13 *736:30 *772:17 0.00279346
14 *738:27 *772:13 0.00790833
15 *739:19 *772:13 5.54597e-05
16 *742:9 *772:17 0.00328308
17 *742:17 *772:13 0.00121548
18 *746:19 *772:13 1.88299e-05
19 *757:17 *772:13 0.000789406
20 *757:17 *772:17 0.0177962
21 *764:19 *772:13 0.00236102
22 *766:9 *772:17 0.0122265
23 *766:25 *772:13 5.10545e-05
*RES
1 *804:mem_wdata[15] *772:13 43.946 
2 *772:13 *772:15 15 
3 *772:15 *772:17 194.528 
4 *772:17 *772:19 15 
5 *772:19 *803:cpu_mem_wdata[15] 767.568 
*END

*D_NET *773 0.164832
*CONN
*I *803:cpu_mem_wdata[16] I *D memory_macro
*I *804:mem_wdata[16] O *D picorv32_soc
*CAP
1 *803:cpu_mem_wdata[16] 0.0339648
2 *804:mem_wdata[16] 0.000654244
3 *773:11 0.0339648
4 *773:9 0.00738428
5 *773:7 0.00803852
6 *773:9 *775:9 0.0342169
7 *773:9 *782:9 0
8 *773:9 *787:16 0.000166435
9 *773:9 *788:23 0.00403543
10 *804:mem_rdata[15] *773:9 0.00086554
11 *748:19 *773:9 0.000737398
12 *748:27 *773:9 0.00116493
13 *749:19 *773:9 0.000833579
14 *750:19 *773:9 0.00531646
15 *751:19 *773:9 0.00672051
16 *757:23 *773:7 0.000124097
17 *767:11 *773:9 0.00034259
18 *771:9 *773:9 0.0263009
*RES
1 *804:mem_wdata[16] *773:7 19.3411 
2 *773:7 *773:9 63.4256 
3 *773:9 *773:11 8 
4 *773:11 *803:cpu_mem_wdata[16] 772.674 
*END

*D_NET *774 0.153297
*CONN
*I *803:cpu_mem_wdata[17] I *D memory_macro
*I *804:mem_wdata[17] O *D picorv32_soc
*CAP
1 *803:cpu_mem_wdata[17] 0.0335673
2 *804:mem_wdata[17] 0.00196952
3 *774:19 0.0335673
4 *774:17 0.00446767
5 *774:15 0.00643719
6 *774:15 *798:19 0.000582458
7 *804:mem_rdata[18] *774:15 0.00645734
8 *736:30 *774:17 0.00298428
9 *739:19 *774:15 0.00272431
10 *742:9 *774:17 0.0252864
11 *743:9 *774:17 0.0308798
12 *754:43 *774:15 0.00172237
13 *757:17 *774:17 0.000412943
14 *766:9 *774:17 0.00216292
15 *768:9 *774:15 6.86581e-05
16 *772:13 *774:15 6.22155e-06
*RES
1 *804:mem_wdata[17] *774:15 48.7444 
2 *774:15 *774:17 330.786 
3 *774:17 *774:19 15 
4 *774:19 *803:cpu_mem_wdata[17] 766.511 
*END

*D_NET *775 0.1936
*CONN
*I *803:cpu_mem_wdata[18] I *D memory_macro
*I *804:mem_wdata[18] O *D picorv32_soc
*CAP
1 *803:cpu_mem_wdata[18] 0.0338023
2 *804:mem_wdata[18] 0.000593137
3 *775:11 0.0338023
4 *775:9 0.0123787
5 *775:7 0.0129719
6 *775:9 *777:17 0.0126077
7 *775:9 *782:9 0
8 *804:mem_rdata[15] *775:9 0.00351609
9 *105:9 *803:cpu_mem_wdata[18] 0.0074937
10 *748:19 *775:9 0.000742055
11 *748:27 *775:9 0.000776415
12 *749:19 *775:9 0.000909354
13 *752:31 *775:9 0.00744759
14 *753:31 *775:9 0.00917439
15 *755:17 *775:9 0.00308833
16 *758:17 *775:9 0.00235104
17 *763:31 *775:9 0.0161056
18 *766:25 *775:9 0.000195598
19 *768:11 *775:9 0.00142685
20 *773:9 *775:9 0.0342169
*RES
1 *804:mem_wdata[18] *775:7 18.6368 
2 *775:7 *775:9 80.5989 
3 *775:9 *775:11 8 
4 *775:11 *803:cpu_mem_wdata[18] 771.97 
*END

*D_NET *776 0.182904
*CONN
*I *803:cpu_mem_wdata[19] I *D memory_macro
*I *804:mem_wdata[19] O *D picorv32_soc
*CAP
1 *803:cpu_mem_wdata[19] 0.0334445
2 *804:mem_wdata[19] 0.00236949
3 *776:19 0.0334445
4 *776:17 0.00580599
5 *776:15 0.00580599
6 *776:13 0.00236949
7 *776:13 *777:17 0.000106732
8 *804:mem_rdata[15] *776:13 0.000273391
9 *104:9 *803:cpu_mem_wdata[19] 0.00746388
10 *739:19 *776:17 0.00378236
11 *742:17 *776:13 0.000580925
12 *744:9 *776:17 0.0373819
13 *744:19 *776:13 0.000602919
14 *746:9 *776:17 0.0397358
15 *746:19 *776:13 0.00660852
16 *754:35 *776:17 2.50118e-05
17 *757:17 *776:13 0.000594389
18 *757:17 *776:17 0
19 *766:9 *776:13 0.00019952
20 *766:9 *776:17 6.03227e-05
21 *772:13 *776:13 0.00224771
*RES
1 *804:mem_wdata[19] *776:13 37.2658 
2 *776:13 *776:15 15 
3 *776:15 *776:17 426.072 
4 *776:17 *776:19 15 
5 *776:19 *803:cpu_mem_wdata[19] 765.455 
*END

*D_NET *777 0.187884
*CONN
*I *803:cpu_mem_wdata[1] I *D memory_macro
*I *804:mem_wdata[1] O *D picorv32_soc
*CAP
1 *803:cpu_mem_wdata[1] 0.0346435
2 *804:mem_wdata[1] 0.000982387
3 *777:19 0.0346435
4 *777:17 0.0175912
5 *777:15 0.0178953
6 *777:9 0.00403309
7 *777:7 0.00471139
8 *777:9 *793:9 0.00787288
9 *777:9 *795:11 0.00250221
10 *777:15 *795:7 0
11 *777:17 *788:23 0.00227261
12 *804:mem_rdata[15] *777:17 0.00131357
13 *43:9 *777:9 0
14 *43:19 *777:17 0.018812
15 *44:9 *777:17 0
16 *742:17 *777:17 0.00081458
17 *744:19 *777:17 0.00686432
18 *746:19 *777:17 0
19 *747:9 *777:9 0.00150554
20 *748:19 *777:9 0.000255841
21 *748:27 *777:17 0.000949275
22 *754:43 *777:17 0
23 *755:17 *777:17 0.00270664
24 *755:27 *777:17 0.000760094
25 *758:17 *777:17 0.00471072
26 *758:27 *777:17 0.00037986
27 *766:25 *777:17 0.00416069
28 *768:11 *777:17 0.00478797
29 *775:9 *777:17 0.0126077
30 *776:13 *777:17 0.000106732
*RES
1 *804:mem_wdata[1] *777:7 28.63 
2 *777:7 *777:9 122.111 
3 *777:9 *777:15 26.8425 
4 *777:15 *777:17 86.4379 
5 *777:17 *777:19 8 
6 *777:19 *803:cpu_mem_wdata[1] 771.265 
*END

*D_NET *778 0.264346
*CONN
*I *803:cpu_mem_wdata[20] I *D memory_macro
*I *804:mem_wdata[20] O *D picorv32_soc
*CAP
1 *803:cpu_mem_wdata[20] 0.00963976
2 *804:mem_wdata[20] 0.00115519
3 *778:11 0.00963976
4 *778:9 0.0138392
5 *778:7 0.0149944
6 *803:cpu_mem_wdata[20] *787:18 0.0038266
7 *803:cpu_mem_wdata[20] *789:13 0.0606056
8 *803:cpu_mem_wdata[20] *790:13 0.0606639
9 *778:9 *780:9 0.0511873
10 *778:9 *790:9 0.00262854
11 *778:9 *796:11 0.0190183
12 *80:9 *778:9 0.0126623
13 *103:9 *803:cpu_mem_wdata[20] 0.00448474
*RES
1 *804:mem_wdata[20] *778:7 29.2011 
2 *778:7 *778:9 97.7723 
3 *778:9 *778:11 8 
4 *778:11 *803:cpu_mem_wdata[20] 782.534 
*END

*D_NET *779 0.220582
*CONN
*I *803:cpu_mem_wdata[21] I *D memory_macro
*I *804:mem_wdata[21] O *D picorv32_soc
*CAP
1 *803:cpu_mem_wdata[21] 0.0340685
2 *804:mem_wdata[21] 0.0010445
3 *779:11 0.0340685
4 *779:9 0.0113148
5 *779:7 0.0123593
6 *779:9 *780:9 0.0552164
7 *779:9 *781:9 0.0554391
8 *779:9 *787:16 0.00951482
9 *44:5 *779:7 0
10 *52:27 *803:cpu_mem_wdata[21] 0.00138885
11 *90:11 *803:cpu_mem_wdata[21] 0.000275412
12 *102:9 *803:cpu_mem_wdata[21] 0.00582858
13 *681:13 *803:cpu_mem_wdata[21] 0
14 *682:10 *803:cpu_mem_wdata[21] 0
15 *683:21 *803:cpu_mem_wdata[21] 0
16 *753:41 *779:7 0
17 *755:27 *779:7 6.34668e-05
*RES
1 *804:mem_wdata[21] *779:7 27.7925 
2 *779:7 *779:9 106.359 
3 *779:9 *779:11 8 
4 *779:11 *803:cpu_mem_wdata[21] 781.125 
*END

*D_NET *780 0.290291
*CONN
*I *803:cpu_mem_wdata[22] I *D memory_macro
*I *804:mem_wdata[22] O *D picorv32_soc
*CAP
1 *803:cpu_mem_wdata[22] 0.00159168
2 *804:mem_wdata[22] 0.00109134
3 *780:13 0.0115008
4 *780:11 0.00990909
5 *780:9 0.0112902
6 *780:7 0.0123816
7 *780:9 *781:9 0.000612687
8 *780:13 *781:13 0
9 *780:13 *782:13 0.000166514
10 *33:9 *780:13 0.00250372
11 *80:9 *780:9 0.00107764
12 *141:9 *780:13 0.00254129
13 *584:19 *803:cpu_mem_wdata[22] 0.000466068
14 *682:14 *803:cpu_mem_wdata[22] 0.00389681
15 *683:25 *803:cpu_mem_wdata[22] 0.00321696
16 *748:11 *803:cpu_mem_wdata[22] 0.000480729
17 *750:11 *803:cpu_mem_wdata[22] 0.000176784
18 *751:11 *803:cpu_mem_wdata[22] 0.000156142
19 *752:25 *803:cpu_mem_wdata[22] 6.02606e-05
20 *752:27 *780:13 0.000481311
21 *753:25 *803:cpu_mem_wdata[22] 6.42598e-05
22 *754:29 *803:cpu_mem_wdata[22] 0.000806677
23 *755:13 *780:13 0.059847
24 *757:13 *780:13 0.0595678
25 *778:9 *780:9 0.0511873
26 *779:9 *780:9 0.0552164
*RES
1 *804:mem_wdata[22] *780:7 28.4968 
2 *780:7 *780:9 104.384 
3 *780:9 *780:11 8 
4 *780:11 *780:13 784.015 
5 *780:13 *803:cpu_mem_wdata[22] 26.6176 
*END

*D_NET *781 0.306055
*CONN
*I *803:cpu_mem_wdata[23] I *D memory_macro
*I *804:mem_wdata[23] O *D picorv32_soc
*CAP
1 *803:cpu_mem_wdata[23] 0.00427379
2 *804:mem_wdata[23] 0.000996084
3 *781:13 0.0134963
4 *781:11 0.00922252
5 *781:9 0.0105246
6 *781:7 0.0115206
7 *803:cpu_mem_wdata[23] *790:17 0.00183268
8 *781:9 *782:9 0.000700019
9 *781:9 *783:9 0.0562617
10 *781:9 *787:16 0.0113992
11 *781:13 *782:13 0.000265378
12 *80:9 *781:9 0.000328389
13 *141:9 *781:13 0.00350237
14 *552:21 *803:cpu_mem_wdata[23] 0.000483596
15 *609:17 *803:cpu_mem_wdata[23] 0
16 *685:18 *803:cpu_mem_wdata[23] 0.00546333
17 *747:5 *781:13 0
18 *753:27 *781:13 0.0599949
19 *754:31 *781:13 0.0594161
20 *758:13 *781:13 0.000271264
21 *758:27 *781:7 5.01309e-05
22 *779:9 *781:9 0.0554391
23 *780:9 *781:9 0.000612687
24 *780:13 *781:13 0
*RES
1 *804:mem_wdata[23] *781:7 27.0882 
2 *781:7 *781:9 106.874 
3 *781:9 *781:11 8 
4 *781:11 *781:13 771.338 
5 *781:13 *803:cpu_mem_wdata[23] 41.9423 
*END

*D_NET *782 0.295445
*CONN
*I *803:cpu_mem_wdata[24] I *D memory_macro
*I *804:mem_wdata[24] O *D picorv32_soc
*CAP
1 *803:cpu_mem_wdata[24] 0.000765584
2 *804:mem_wdata[24] 0.000938042
3 *782:19 0.00484952
4 *782:13 0.0130271
5 *782:11 0.00894318
6 *782:9 0.0169444
7 *782:7 0.0178825
8 *782:9 *783:9 0.0573588
9 *782:9 *787:16 0.0137122
10 *782:19 *783:19 0.0125242
11 *141:9 *782:13 0.00459423
12 *531:14 *782:19 0.00217254
13 *747:19 *782:9 0.0161214
14 *750:27 *782:9 0.00184215
15 *751:27 *782:9 0.000117085
16 *752:27 *782:13 0.05971
17 *753:27 *782:13 0.0596868
18 *767:11 *782:9 0
19 *769:11 *782:9 0.00312307
20 *773:9 *782:9 0
21 *775:9 *782:9 0
22 *780:13 *782:13 0.000166514
23 *781:9 *782:9 0.000700019
24 *781:13 *782:13 0.000265378
*RES
1 *804:mem_wdata[24] *782:7 25.6796 
2 *782:7 *782:9 108.763 
3 *782:9 *782:11 8 
4 *782:11 *782:13 765.704 
5 *782:13 *782:19 39.4117 
6 *782:19 *803:cpu_mem_wdata[24] 13.4539 
*END

*D_NET *783 0.278287
*CONN
*I *803:cpu_mem_wdata[25] I *D memory_macro
*I *804:mem_wdata[25] O *D picorv32_soc
*CAP
1 *803:cpu_mem_wdata[25] 0.000710361
2 *804:mem_wdata[25] 0.000936935
3 *783:19 0.00500358
4 *783:13 0.0274125
5 *783:11 0.0231193
6 *783:9 0.0108436
7 *783:7 0.0117806
8 *783:9 *787:16 0.0125166
9 *783:13 *787:18 0.0104674
10 *783:13 *790:13 0.0314415
11 *783:19 *787:22 0.01736
12 *783:19 *789:17 3.88045e-05
13 *80:9 *783:9 0.000404652
14 *531:14 *783:19 0
15 *751:27 *783:9 0.000106251
16 *752:41 *783:9 0
17 *781:9 *783:9 0.0562617
18 *782:9 *783:9 0.0573588
19 *782:19 *783:19 0.0125242
*RES
1 *804:mem_wdata[25] *783:7 26.3839 
2 *783:7 *783:9 108.334 
3 *783:9 *783:11 8 
4 *783:11 *783:13 767.112 
5 *783:13 *783:19 48.4277 
6 *783:19 *803:cpu_mem_wdata[25] 12.7496 
*END

*D_NET *784 0.213527
*CONN
*I *803:cpu_mem_wdata[26] I *D memory_macro
*I *804:mem_wdata[26] O *D picorv32_soc
*CAP
1 *803:cpu_mem_wdata[26] 0.000199912
2 *804:mem_wdata[26] 0.00551876
3 *784:27 0.00823178
4 *784:25 0.00803187
5 *784:23 0.0330088
6 *784:21 0.0330088
7 *784:19 0.00805784
8 *784:17 0.00813555
9 *784:11 0.00559647
10 *784:11 *785:10 0.0110461
11 *784:11 *786:12 1.98028e-05
12 *784:11 *786:14 0.00294969
13 *784:11 *799:19 0.00235186
14 *784:19 *785:14 0.0160563
15 *784:19 *786:14 0.0228833
16 *784:19 *799:19 0.000371901
17 *784:27 *786:22 0.0256861
18 *804:mem_rdata[16] *784:11 0.00108982
19 *546:19 *784:27 0.00455715
20 *546:25 *784:27 0.000616139
21 *726:11 *784:19 0.00682783
22 *727:16 *784:11 0.0035403
23 *735:34 *784:19 0.00430509
24 *737:36 *784:11 0.000169375
25 *741:17 *784:11 0.0012664
26 *744:5 *784:23 0
27 *759:17 *784:11 0
*RES
1 *804:mem_wdata[26] *784:11 43.7269 
2 *784:11 *784:17 24.0254 
3 *784:17 *784:19 386.052 
4 *784:19 *784:21 15 
5 *784:21 *784:23 757.252 
6 *784:23 *784:25 15 
7 *784:25 *784:27 275.044 
8 *784:27 *803:cpu_mem_wdata[26] 18.0657 
*END

*D_NET *785 0.196443
*CONN
*I *803:cpu_mem_wdata[27] I *D memory_macro
*I *804:mem_wdata[27] O *D picorv32_soc
*CAP
1 *803:cpu_mem_wdata[27] 0.00593232
2 *804:mem_wdata[27] 0.00202363
3 *785:24 0.00593232
4 *785:22 0.0129971
5 *785:20 0.0129971
6 *785:18 0.0273949
7 *785:16 0.0273949
8 *785:14 0.0125793
9 *785:12 0.0125793
10 *785:10 0.00202363
11 *785:10 *786:12 0.00153867
12 *785:10 *799:19 0.0126376
13 *785:14 *786:14 0.00182049
14 *785:14 *791:9 0.00115871
15 *785:14 *792:9 0
16 *785:14 *798:11 0.0028496
17 *107:9 *785:18 0.00316695
18 *726:11 *785:14 0.00696995
19 *727:16 *785:10 0.00250925
20 *729:11 *785:14 0.0123346
21 *731:21 *785:14 0.00250049
22 *746:5 *785:18 0
23 *784:11 *785:10 0.0110461
24 *784:19 *785:14 0.0160563
*RES
1 *804:mem_wdata[27] *785:10 40.2654 
2 *785:10 *785:12 15 
3 *785:12 *785:14 478.956 
4 *785:14 *785:16 15 
5 *785:16 *785:18 629.424 
6 *785:18 *785:20 15 
7 *785:20 *785:22 268.374 
8 *785:22 *785:24 15 
9 *785:24 *803:cpu_mem_wdata[27] 131.598 
*END

*D_NET *786 0.212135
*CONN
*I *803:cpu_mem_wdata[28] I *D memory_macro
*I *804:mem_wdata[28] O *D picorv32_soc
*CAP
1 *803:cpu_mem_wdata[28] 0.00017549
2 *804:mem_wdata[28] 0.00101662
3 *786:22 0.0176419
4 *786:20 0.0174664
5 *786:18 0.033224
6 *786:16 0.033224
7 *786:14 0.0122844
8 *786:12 0.013301
9 *786:12 *799:19 0.000578718
10 *786:14 *799:11 0.00966368
11 *786:18 *801:18 0
12 *804:mem_rdata[9] *786:14 0.000228207
13 *73:9 *786:18 0.000434376
14 *588:35 *786:22 0
15 *614:17 *786:22 0.00826483
16 *725:11 *786:14 0.00170158
17 *726:19 *786:14 0.00203407
18 *727:16 *786:12 0.000605016
19 *735:34 *786:14 0.00465254
20 *737:36 *786:14 0.000740391
21 *759:17 *786:12 0
22 *768:15 *786:18 0
23 *784:11 *786:12 1.98028e-05
24 *784:11 *786:14 0.00294969
25 *784:19 *786:14 0.0228833
26 *784:27 *786:22 0.0256861
27 *785:10 *786:12 0.00153867
28 *785:14 *786:14 0.00182049
*RES
1 *804:mem_wdata[28] *786:12 36.5377 
2 *786:12 *786:14 413.685 
3 *786:14 *786:16 15 
4 *786:16 *786:18 757.252 
5 *786:18 *786:20 15 
6 *786:20 *786:22 483.244 
7 *786:22 *803:cpu_mem_wdata[28] 17.7136 
*END

*D_NET *787 0.351257
*CONN
*I *803:cpu_mem_wdata[29] I *D memory_macro
*I *804:mem_wdata[29] O *D picorv32_soc
*CAP
1 *803:cpu_mem_wdata[29] 0.000639907
2 *804:mem_wdata[29] 0.0543249
3 *787:22 0.00891641
4 *787:20 0.0082765
5 *787:18 0.0360468
6 *787:16 0.0903717
7 *787:16 *788:23 0.00883929
8 *787:16 *799:19 0.000392238
9 *787:18 *789:13 0.00764957
10 *787:18 *790:13 0.00466847
11 *787:22 *789:17 0.0315454
12 *803:cpu_mem_wdata[20] *787:18 0.0038266
13 *804:mem_rdata[15] *787:16 0.00143564
14 *32:9 *787:18 0.00161038
15 *103:9 *787:18 0.00906445
16 *117:11 *787:18 0.00115823
17 *531:14 *787:22 0
18 *747:19 *787:16 0.00296899
19 *749:27 *787:16 0.00156401
20 *750:27 *787:16 0.00173686
21 *751:27 *787:16 0.0010842
22 *759:17 *787:16 0
23 *773:9 *787:16 0.000166435
24 *779:9 *787:16 0.00951482
25 *781:9 *787:16 0.0113992
26 *782:9 *787:16 0.0137122
27 *783:9 *787:16 0.0125166
28 *783:13 *787:18 0.0104674
29 *783:19 *787:22 0.01736
*RES
1 *804:mem_wdata[29] *787:16 36.1087 
2 *787:16 *787:18 138.413 
3 *787:18 *787:20 8 
4 *787:20 *787:22 58.4024 
5 *787:22 *803:cpu_mem_wdata[29] 20.0454 
*END

*D_NET *788 0.241031
*CONN
*I *803:cpu_mem_wdata[2] I *D memory_macro
*I *804:mem_wdata[2] O *D picorv32_soc
*CAP
1 *803:cpu_mem_wdata[2] 0.00146331
2 *804:mem_wdata[2] 0.0267625
3 *788:25 0.0341217
4 *788:23 0.0594209
5 *803:cpu_mem_wdata[2] *803:cpu_mem_wdata[3] 0.00387789
6 *788:23 *795:11 0.00159724
7 *803:cpu_mem_addr[2] *803:cpu_mem_wdata[2] 0.000226904
8 *804:mem_rdata[15] *788:23 0.0129404
9 *97:8 *788:25 0.00259794
10 *126:19 *788:23 0.000312711
11 *126:19 *788:25 0.000317916
12 *127:9 *788:25 0
13 *131:9 *788:23 0.000280131
14 *131:9 *788:25 0.0284785
15 *545:17 *788:25 0.000406248
16 *545:19 *803:cpu_mem_wdata[2] 0
17 *546:19 *803:cpu_mem_wdata[2] 0
18 *609:21 *788:25 0
19 *725:23 *788:25 0.0100193
20 *727:18 *788:25 0.00156675
21 *730:12 *788:23 0.000133432
22 *732:9 *788:23 0.000266023
23 *745:10 *788:25 0
24 *748:27 *788:23 0.00219722
25 *752:41 *788:23 0.00089994
26 *753:41 *788:23 0.00110395
27 *755:27 *788:23 0.00196364
28 *756:10 *803:cpu_mem_wdata[2] 2.60531e-05
29 *758:27 *788:23 0.00178584
30 *766:25 *788:23 0.0251751
31 *767:11 *788:23 0.00186671
32 *769:11 *788:23 0.00221026
33 *771:9 *788:23 0.00386486
34 *773:9 *788:23 0.00403543
35 *777:17 *788:23 0.00227261
36 *787:16 *788:23 0.00883929
*RES
1 *804:mem_wdata[2] *788:23 35.2679 
2 *788:23 *788:25 138.133 
3 *788:25 *803:cpu_mem_wdata[2] 23.3976 
*END

*D_NET *789 0.343146
*CONN
*I *803:cpu_mem_wdata[30] I *D memory_macro
*I *804:mem_wdata[30] O *D picorv32_soc
*CAP
1 *803:cpu_mem_wdata[30] 0.000574698
2 *804:mem_wdata[30] 0.00120108
3 *789:17 0.00756264
4 *789:15 0.00698795
5 *789:13 0.0215554
6 *789:11 0.0215554
7 *789:9 0.0173386
8 *789:7 0.0185397
9 *789:9 *790:9 0.0619927
10 *789:9 *797:11 0.0034966
11 *789:9 *800:9 0.034121
12 *789:13 *790:13 0.000135049
13 *789:17 *790:17 0.0352291
14 *803:cpu_mem_wdata[20] *789:13 0.0606056
15 *103:9 *789:13 0.0102693
16 *531:14 *789:17 0
17 *552:21 *789:17 0.00274702
18 *609:17 *789:17 0
19 *783:19 *789:17 3.88045e-05
20 *787:18 *789:13 0.00764957
21 *787:22 *789:17 0.0315454
*RES
1 *804:mem_wdata[30] *789:7 33.4268 
2 *789:7 *789:9 118.294 
3 *789:9 *789:11 8 
4 *789:11 *789:13 775.564 
5 *789:13 *789:15 8 
6 *789:15 *789:17 65.4005 
7 *789:17 *803:cpu_mem_wdata[30] 19.3411 
*END

*D_NET *790 0.35238
*CONN
*I *803:cpu_mem_wdata[31] I *D memory_macro
*I *804:mem_wdata[31] O *D picorv32_soc
*CAP
1 *803:cpu_mem_wdata[31] 0.00053651
2 *804:mem_wdata[31] 0.00114579
3 *790:17 0.00867586
4 *790:15 0.00813935
5 *790:13 0.0111594
6 *790:11 0.0111594
7 *790:9 0.0212735
8 *790:7 0.0224193
9 *790:9 *796:11 0.00417316
10 *790:9 *800:9 0.000518706
11 *803:cpu_mem_wdata[20] *790:13 0.0606639
12 *803:cpu_mem_wdata[23] *790:17 0.00183268
13 *80:9 *790:9 0.00539904
14 *80:17 *790:9 0.0112904
15 *103:9 *790:13 0.00385294
16 *531:14 *790:17 0
17 *552:21 *790:17 0.00312502
18 *609:17 *790:17 0
19 *685:18 *790:17 0.0337682
20 *755:9 *790:17 0.00581924
21 *757:9 *790:17 0.0004875
22 *758:9 *790:17 0.000844515
23 *778:9 *790:9 0.00262854
24 *783:13 *790:13 0.0314415
25 *787:18 *790:13 0.00466847
26 *789:9 *790:9 0.0619927
27 *789:13 *790:13 0.000135049
28 *789:17 *790:17 0.0352291
*RES
1 *804:mem_wdata[31] *790:7 32.7225 
2 *790:7 *790:9 120.527 
3 *790:9 *790:11 8 
4 *790:11 *790:13 775.564 
5 *790:13 *790:15 8 
6 *790:15 *790:17 71.7547 
7 *790:17 *803:cpu_mem_wdata[31] 18.6368 
*END

*D_NET *791 0.268626
*CONN
*I *803:cpu_mem_wdata[3] I *D memory_macro
*I *804:mem_wdata[3] O *D picorv32_soc
*CAP
1 *803:cpu_mem_wdata[3] 0.00545233
2 *804:mem_wdata[3] 9.56138e-05
3 *791:13 0.015434
4 *791:11 0.00998165
5 *791:9 0.0116139
6 *791:7 0.0117095
7 *791:9 *798:19 0.0390728
8 *791:13 *798:23 0
9 *791:13 *799:27 0.00371891
10 *803:cpu_mem_addr[2] *803:cpu_mem_wdata[3] 8.37505e-05
11 *803:cpu_mem_wdata[2] *803:cpu_mem_wdata[3] 0.00387789
12 *83:6 *791:9 9.11923e-06
13 *127:9 *791:13 0.00196716
14 *546:19 *803:cpu_mem_wdata[3] 0
15 *550:19 *803:cpu_mem_wdata[3] 0
16 *584:19 *803:cpu_mem_wdata[3] 0.000200936
17 *614:17 *803:cpu_mem_wdata[3] 0
18 *725:19 *791:9 0.0413955
19 *726:19 *791:9 0.000956877
20 *726:25 *791:9 9.82943e-05
21 *726:27 *791:13 0.0597841
22 *729:11 *791:9 0.000120692
23 *730:12 *791:9 0.00142652
24 *731:17 *791:9 0.0030479
25 *732:9 *791:9 0.00761821
26 *759:13 *791:13 0.0483461
27 *770:9 *791:9 0.00145501
28 *785:14 *791:9 0.00115871
*RES
1 *804:mem_wdata[3] *791:7 9.48107 
2 *791:7 *791:9 95.1104 
3 *791:9 *791:11 8 
4 *791:11 *791:13 765.704 
5 *791:13 *803:cpu_mem_wdata[3] 37.0933 
*END

*D_NET *792 0.243408
*CONN
*I *803:cpu_mem_wdata[4] I *D memory_macro
*I *804:mem_wdata[4] O *D picorv32_soc
*CAP
1 *803:cpu_mem_wdata[4] 0.00621272
2 *804:mem_wdata[4] 0.00018774
3 *792:33 0.0114975
4 *792:27 0.00603032
5 *792:17 0.00503418
6 *792:15 0.00428865
7 *792:13 0.00749008
8 *792:11 0.00749008
9 *792:9 0.0040132
10 *792:7 0.00420094
11 *792:9 *798:11 0
12 *792:13 *793:13 0.0490629
13 *792:13 *794:13 0.0490629
14 *792:17 *793:17 0.000189592
15 *792:17 *794:17 0.00564215
16 *792:33 *794:17 0.000463709
17 *530:12 *792:33 4.00623e-05
18 *531:12 *792:33 4.00623e-05
19 *728:11 *792:9 0
20 *728:41 *792:33 0.00653245
21 *729:19 *792:17 0.0244452
22 *730:26 *792:33 0.000471964
23 *731:27 *792:27 0.00137888
24 *731:27 *792:33 0.000225498
25 *754:35 *792:9 0.0125014
26 *760:17 *792:17 0.0271521
27 *762:9 *792:33 2.67626e-06
28 *763:19 *792:27 2.48355e-05
29 *769:15 *792:13 0.00711252
30 *770:9 *792:9 0.00261407
31 *785:14 *792:9 0
*RES
1 *804:mem_wdata[4] *792:7 18.0657 
2 *792:7 *792:9 134.021 
3 *792:9 *792:11 15 
4 *792:11 *792:13 625.199 
5 *792:13 *792:15 15 
6 *792:15 *792:17 302.201 
7 *792:17 *792:27 26.9243 
8 *792:27 *792:33 32.3656 
9 *792:33 *803:cpu_mem_wdata[4] 140.225 
*END

*D_NET *793 0.244464
*CONN
*I *803:cpu_mem_wdata[5] I *D memory_macro
*I *804:mem_wdata[5] O *D picorv32_soc
*CAP
1 *803:cpu_mem_wdata[5] 0.00599227
2 *804:mem_wdata[5] 0.000951991
3 *793:27 0.0128134
4 *793:23 0.00701586
5 *793:17 0.00652048
6 *793:15 0.00632571
7 *793:13 0.00802452
8 *793:11 0.00802452
9 *793:9 0.00294607
10 *793:7 0.00389806
11 *793:13 *794:13 0.000144219
12 *793:13 *796:13 3.11662e-05
13 *43:9 *793:9 0
14 *729:19 *793:17 0.000352841
15 *730:26 *793:27 0.00728139
16 *741:13 *793:13 0
17 *747:9 *793:9 0.0138085
18 *761:13 *793:27 0.0142348
19 *761:17 *793:17 0.0179477
20 *762:9 *793:17 0.00810295
21 *764:9 *793:27 0.00180192
22 *765:11 *793:27 0.000500683
23 *767:11 *793:9 0.00256491
24 *769:15 *793:13 0.00827881
25 *771:13 *793:13 0.0497762
26 *777:9 *793:9 0.00787288
27 *792:13 *793:13 0.0490629
28 *792:17 *793:17 0.000189592
*RES
1 *804:mem_wdata[5] *793:7 28.2779 
2 *793:7 *793:9 150.696 
3 *793:9 *793:11 15 
4 *793:11 *793:13 636.467 
5 *793:13 *793:15 15 
6 *793:15 *793:17 208.821 
7 *793:17 *793:23 26.1382 
8 *793:23 *793:27 41.544 
9 *793:27 *803:cpu_mem_wdata[5] 135.295 
*END

*D_NET *794 0.24117
*CONN
*I *803:cpu_mem_wdata[6] I *D memory_macro
*I *804:mem_wdata[6] O *D picorv32_soc
*CAP
1 *803:cpu_mem_wdata[6] 0.00620937
2 *804:mem_wdata[6] 0.00415638
3 *794:19 0.00620937
4 *794:17 0.00704754
5 *794:15 0.00704754
6 *794:13 0.0105502
7 *794:11 0.0105502
8 *794:9 0.00415638
9 *804:mem_rdata[15] *794:9 0.00332436
10 *79:10 *794:17 0.000296448
11 *728:19 *794:17 0.000509373
12 *729:19 *794:17 0.00583282
13 *730:26 *794:17 0.00328927
14 *731:27 *794:17 0.0300604
15 *736:30 *794:9 0.000676022
16 *738:27 *794:9 0.0155372
17 *741:13 *794:13 0.0168531
18 *757:17 *794:9 0.000104089
19 *762:9 *794:17 0.0325716
20 *764:19 *794:9 0.0141432
21 *768:11 *794:9 0.000272437
22 *769:15 *794:13 0.00646019
23 *770:9 *794:9 0
24 *792:13 *794:13 0.0490629
25 *792:17 *794:17 0.00564215
26 *792:33 *794:17 0.000463709
27 *793:13 *794:13 0.000144219
*RES
1 *804:mem_wdata[6] *794:9 45.5682 
2 *794:9 *794:11 8 
3 *794:11 *794:13 629.776 
4 *794:13 *794:15 8 
5 *794:15 *794:17 61.5365 
6 *794:17 *794:19 8 
7 *794:19 *803:cpu_mem_wdata[6] 138.817 
*END

*D_NET *795 0.233055
*CONN
*I *803:cpu_mem_wdata[7] I *D memory_macro
*I *804:mem_wdata[7] O *D picorv32_soc
*CAP
1 *803:cpu_mem_wdata[7] 0.00555037
2 *804:mem_wdata[7] 0.000919981
3 *795:19 0.00555037
4 *795:17 0.0102039
5 *795:15 0.0102039
6 *795:13 0.00879519
7 *795:11 0.0118132
8 *795:7 0.00393796
9 *795:17 *801:22 0.0271792
10 *804:mem_rdata[15] *795:11 0.000655337
11 *728:15 *795:13 0.048761
12 *729:15 *795:13 3.16875e-05
13 *730:14 *795:13 0.00817791
14 *730:26 *795:17 0.00229799
15 *735:30 *795:13 0.0498276
16 *736:26 *795:13 0.000226764
17 *738:23 *795:13 3.77078e-05
18 *767:11 *795:11 0.017395
19 *769:11 *795:11 0.0173908
20 *777:9 *795:11 0.00250221
21 *777:15 *795:7 0
22 *788:23 *795:11 0.00159724
*RES
1 *804:mem_wdata[7] *795:7 21.4539 
2 *795:7 *795:11 40.1701 
3 *795:11 *795:13 650.201 
4 *795:13 *795:15 8 
5 *795:15 *795:17 50.3739 
6 *795:17 *795:19 8 
7 *795:19 *803:cpu_mem_wdata[7] 124.731 
*END

*D_NET *796 0.197052
*CONN
*I *803:cpu_mem_wdata[8] I *D memory_macro
*I *804:mem_wdata[8] O *D picorv32_soc
*CAP
1 *803:cpu_mem_wdata[8] 0
2 *804:mem_wdata[8] 0.00139108
3 *796:17 0.00738427
4 *796:13 0.030006
5 *796:11 0.0288064
6 *796:7 0.00757583
7 *796:17 *803:cpu_mem_wdata[9] 0.00880536
8 *803:cpu_mem_wdata[10] *796:17 0.00162246
9 *584:19 *796:17 0.000752957
10 *729:15 *796:13 0
11 *735:12 *796:17 0.00164423
12 *735:22 *796:17 0.000140076
13 *736:14 *796:17 0.00184312
14 *736:24 *796:17 1.74643e-05
15 *738:11 *796:17 0.00186295
16 *738:21 *796:17 0.00135639
17 *762:13 *796:13 0
18 *767:25 *796:17 0.000250629
19 *768:31 *796:17 0.00555366
20 *769:15 *796:13 0.0138929
21 *770:27 *796:17 0.000247078
22 *771:13 *796:13 0.0606766
23 *778:9 *796:11 0.0190183
24 *790:9 *796:11 0.00417316
25 *793:13 *796:13 3.11662e-05
*RES
1 *804:mem_wdata[8] *796:7 29.9054 
2 *796:7 *796:11 44.2917 
3 *796:11 *796:13 786.128 
4 *796:13 *796:17 49.5296 
5 *796:17 *803:cpu_mem_wdata[8] 8 
*END

*D_NET *797 0.136196
*CONN
*I *803:cpu_mem_wdata[9] I *D memory_macro
*I *804:mem_wdata[9] O *D picorv32_soc
*CAP
1 *803:cpu_mem_wdata[9] 0.00474858
2 *804:mem_wdata[9] 0.00164732
3 *797:13 0.0396203
4 *797:11 0.0422132
5 *797:7 0.00898876
6 *797:11 *800:9 0.0114173
7 *803:cpu_mem_wdata[10] *803:cpu_mem_wdata[9] 0.00162246
8 *803:cpu_mem_wdata[12] *803:cpu_mem_wdata[9] 0.000633771
9 *43:5 *797:13 0.000206495
10 *584:19 *803:cpu_mem_wdata[9] 0.00613787
11 *735:12 *803:cpu_mem_wdata[9] 0.00164423
12 *736:14 *803:cpu_mem_wdata[9] 0.00118842
13 *737:18 *803:cpu_mem_wdata[9] 0.00136851
14 *737:28 *797:13 0
15 *738:21 *803:cpu_mem_wdata[9] 0.000436834
16 *739:13 *803:cpu_mem_wdata[9] 0.000208196
17 *739:15 *797:13 0
18 *763:25 *797:13 0
19 *768:31 *803:cpu_mem_wdata[9] 0.00127959
20 *770:29 *803:cpu_mem_wdata[9] 0.000532595
21 *789:9 *797:11 0.0034966
22 *796:17 *803:cpu_mem_wdata[9] 0.00880536
*RES
1 *804:mem_wdata[9] *797:7 34.8354 
2 *797:7 *797:11 43.2613 
3 *797:11 *797:13 789.649 
4 *797:13 *803:cpu_mem_wdata[9] 48.3904 
*END

*D_NET *798 0.211553
*CONN
*I *803:cpu_mem_we[0] I *D memory_macro
*I *804:mem_we[0] O *D picorv32_soc
*CAP
1 *803:cpu_mem_we[0] 0.00450997
2 *804:mem_we[0] 0.000250477
3 *798:23 0.027738
4 *798:21 0.023228
5 *798:19 0.0121296
6 *798:17 0.0122366
7 *798:11 0.00565065
8 *798:9 0.00579413
9 *803:cpu_mem_we[0] *803:cpu_mem_we[1] 0
10 *798:23 *799:27 0.0307495
11 *803:cpu_mem_addr[1] *803:cpu_mem_we[0] 0
12 *804:mem_rdata[30] *798:19 0.0144644
13 *44:9 *798:19 0.00176319
14 *46:15 *798:23 0.000363013
15 *83:6 *798:19 3.66451e-05
16 *127:9 *798:23 0.00707061
17 *609:17 *803:cpu_mem_we[0] 4.60071e-05
18 *725:19 *798:11 0.000520771
19 *728:11 *798:11 0.00664465
20 *729:11 *798:9 0.000115009
21 *729:11 *798:11 0.000894784
22 *730:12 *798:11 0.00151814
23 *731:17 *798:11 0.000627704
24 *739:19 *798:19 0.000267474
25 *745:8 *803:cpu_mem_we[0] 0
26 *745:10 *798:23 0.00862052
27 *754:35 *798:11 0
28 *754:43 *798:19 0.000343386
29 *770:9 *798:19 0.00346499
30 *774:15 *798:19 0.000582458
31 *785:14 *798:11 0.0028496
32 *791:9 *798:19 0.0390728
33 *791:13 *798:23 0
34 *792:9 *798:11 0
*RES
1 *804:mem_we[0] *798:9 17.6514 
2 *798:9 *798:11 173.089 
3 *798:11 *798:17 24.7296 
4 *798:17 *798:19 75.3611 
5 *798:19 *798:21 8 
6 *798:21 *798:23 760.774 
7 *798:23 *803:cpu_mem_we[0] 33.2854 
*END

*D_NET *799 0.21022
*CONN
*I *803:cpu_mem_we[1] I *D memory_macro
*I *804:mem_we[1] O *D picorv32_soc
*CAP
1 *803:cpu_mem_we[1] 0.00082902
2 *804:mem_we[1] 0.000177751
3 *799:27 0.0137203
4 *799:25 0.0160971
5 *799:19 0.0127884
6 *799:17 0.00968875
7 *799:11 0.00130297
8 *799:9 0.00137446
9 *803:cpu_mem_addr[1] *803:cpu_mem_we[1] 0.000190707
10 *803:cpu_mem_we[0] *803:cpu_mem_we[1] 0
11 *804:io_in[15] *799:19 4.93791e-05
12 *804:io_in[23] *799:25 0.00306409
13 *804:mem_rdata[16] *799:19 0.00108982
14 *112:8 *799:19 4.93791e-05
15 *127:9 *799:27 0.00325707
16 *129:19 *799:25 0
17 *609:17 *803:cpu_mem_we[1] 4.635e-05
18 *725:11 *799:9 0.000221587
19 *725:11 *799:11 0.00966708
20 *726:19 *799:19 0.0367487
21 *726:19 *799:25 0.000610631
22 *726:25 *799:25 0.000636509
23 *727:16 *799:25 0.00129511
24 *735:34 *799:11 0.00152331
25 *735:34 *799:19 0.00406924
26 *737:36 *799:19 0.00166323
27 *745:10 *799:27 0.00430845
28 *759:13 *799:27 0.0251743
29 *759:17 *799:19 0
30 *759:17 *799:25 0
31 *760:33 *799:11 0.000111701
32 *784:11 *799:19 0.00235186
33 *784:19 *799:19 0.000371901
34 *785:10 *799:19 0.0126376
35 *786:12 *799:19 0.000578718
36 *786:14 *799:11 0.00966368
37 *787:16 *799:19 0.000392238
38 *791:13 *799:27 0.00371891
39 *798:23 *799:27 0.0307495
*RES
1 *804:mem_we[1] *799:9 17.2993 
2 *799:9 *799:11 105.436 
3 *799:11 *799:17 24.3775 
4 *799:17 *799:19 69.9944 
5 *799:19 *799:25 21.7592 
6 *799:25 *799:27 751.618 
7 *799:27 *803:cpu_mem_we[1] 24.6311 
*END

*D_NET *800 0.20675
*CONN
*I *803:cpu_mem_we[2] I *D memory_macro
*I *804:mem_we[2] O *D picorv32_soc
*CAP
1 *803:cpu_mem_we[2] 0.00613679
2 *804:mem_we[2] 0.00166869
3 *800:19 0.00821716
4 *800:13 0.0204862
5 *800:11 0.0184058
6 *800:9 0.020575
7 *800:7 0.0222437
8 *80:9 *800:9 0
9 *725:23 *800:13 0
10 *727:18 *800:13 0.0100497
11 *727:24 *800:19 0.00534131
12 *756:18 *800:13 0.0475687
13 *789:9 *800:9 0.034121
14 *790:9 *800:9 0.000518706
15 *797:11 *800:9 0.0114173
*RES
1 *804:mem_we[2] *800:7 34.1311 
2 *800:7 *800:9 96.8277 
3 *800:9 *800:11 8 
4 *800:11 *800:13 648.088 
5 *800:13 *800:19 25.9307 
6 *800:19 *803:cpu_mem_we[2] 139.521 
*END

*D_NET *801 0.204195
*CONN
*I *803:cpu_mem_we[3] I *D memory_macro
*I *804:mem_we[3] O *D picorv32_soc
*CAP
1 *803:cpu_mem_we[3] 0.00547598
2 *804:mem_we[3] 0.00355269
3 *801:24 0.00547598
4 *801:22 0.0231424
5 *801:20 0.0231424
6 *801:18 0.0176382
7 *801:16 0.0176382
8 *801:14 0.00355269
9 *804:mem_rdata[1] *801:14 0.000277011
10 *73:9 *801:18 0.000320549
11 *727:16 *801:14 0.000128083
12 *735:34 *801:14 4.93791e-05
13 *737:36 *801:14 4.93791e-05
14 *740:10 *801:18 0.00521782
15 *741:17 *801:14 0.0113579
16 *760:33 *801:14 0
17 *761:33 *801:14 0.0099895
18 *762:21 *801:14 0.000333831
19 *768:15 *801:18 0.0496738
20 *786:18 *801:18 0
21 *795:17 *801:22 0.0271792
*RES
1 *804:mem_we[3] *801:14 47.0011 
2 *801:14 *801:16 8 
3 *801:16 *801:18 632.594 
4 *801:18 *801:20 8 
5 *801:20 *801:22 92.1051 
6 *801:22 *801:24 8 
7 *801:24 *803:cpu_mem_we[3] 124.027 
*END
