*SPEF "ieee 1481-1999"
*DESIGN "user_project_wrapper"
*DATE "09:07:45 Saturday November 29, 2025"
*VENDOR "The OpenROAD Project"
*PROGRAM "OpenROAD"
*VERSION "edf00dff99f6c40d67a30c0e22a8191c5d2ed9d6"
*DESIGN_FLOW "NAME_SCOPE LOCAL" "PIN_CAP NONE"
*DIVIDER /
*DELIMITER :
*BUS_DELIMITER []
*T_UNIT 1 NS
*C_UNIT 1 PF
*R_UNIT 1 OHM
*L_UNIT 1 HENRY

*NAME_MAP
*1 analog_io[0]
*2 analog_io[10]
*3 analog_io[11]
*4 analog_io[12]
*5 analog_io[13]
*6 analog_io[14]
*7 analog_io[15]
*8 analog_io[16]
*9 analog_io[17]
*10 analog_io[18]
*11 analog_io[19]
*12 analog_io[1]
*13 analog_io[20]
*14 analog_io[21]
*15 analog_io[22]
*16 analog_io[23]
*17 analog_io[24]
*18 analog_io[25]
*19 analog_io[26]
*20 analog_io[27]
*21 analog_io[28]
*22 analog_io[2]
*23 analog_io[3]
*24 analog_io[4]
*25 analog_io[5]
*26 analog_io[6]
*27 analog_io[7]
*28 analog_io[8]
*29 analog_io[9]
*30 io_in[0]
*31 io_in[10]
*32 io_in[11]
*33 io_in[12]
*34 io_in[13]
*35 io_in[14]
*36 io_in[15]
*37 io_in[16]
*38 io_in[17]
*39 io_in[18]
*40 io_in[19]
*41 io_in[1]
*42 io_in[20]
*43 io_in[21]
*44 io_in[22]
*45 io_in[23]
*46 io_in[24]
*47 io_in[25]
*48 io_in[26]
*49 io_in[27]
*50 io_in[28]
*51 io_in[29]
*52 io_in[2]
*53 io_in[30]
*54 io_in[31]
*55 io_in[32]
*56 io_in[33]
*57 io_in[34]
*58 io_in[35]
*59 io_in[36]
*60 io_in[37]
*61 io_in[3]
*62 io_in[4]
*63 io_in[5]
*64 io_in[6]
*65 io_in[7]
*66 io_in[8]
*67 io_in[9]
*68 io_oeb[0]
*69 io_oeb[10]
*70 io_oeb[11]
*71 io_oeb[12]
*72 io_oeb[13]
*73 io_oeb[14]
*74 io_oeb[15]
*75 io_oeb[16]
*76 io_oeb[17]
*77 io_oeb[18]
*78 io_oeb[19]
*79 io_oeb[1]
*80 io_oeb[20]
*81 io_oeb[21]
*82 io_oeb[22]
*83 io_oeb[23]
*84 io_oeb[24]
*85 io_oeb[25]
*86 io_oeb[26]
*87 io_oeb[27]
*88 io_oeb[28]
*89 io_oeb[29]
*90 io_oeb[2]
*91 io_oeb[30]
*92 io_oeb[31]
*93 io_oeb[32]
*94 io_oeb[33]
*95 io_oeb[34]
*96 io_oeb[35]
*97 io_oeb[36]
*98 io_oeb[37]
*99 io_oeb[3]
*100 io_oeb[4]
*101 io_oeb[5]
*102 io_oeb[6]
*103 io_oeb[7]
*104 io_oeb[8]
*105 io_oeb[9]
*106 io_out[0]
*107 io_out[10]
*108 io_out[11]
*109 io_out[12]
*110 io_out[13]
*111 io_out[14]
*112 io_out[15]
*113 io_out[16]
*114 io_out[17]
*115 io_out[18]
*116 io_out[19]
*117 io_out[1]
*118 io_out[20]
*119 io_out[21]
*120 io_out[22]
*121 io_out[23]
*122 io_out[24]
*123 io_out[25]
*124 io_out[26]
*125 io_out[27]
*126 io_out[28]
*127 io_out[29]
*128 io_out[2]
*129 io_out[30]
*130 io_out[31]
*131 io_out[32]
*132 io_out[33]
*133 io_out[34]
*134 io_out[35]
*135 io_out[36]
*136 io_out[37]
*137 io_out[3]
*138 io_out[4]
*139 io_out[5]
*140 io_out[6]
*141 io_out[7]
*142 io_out[8]
*143 io_out[9]
*144 la_data_in[0]
*145 la_data_in[100]
*146 la_data_in[101]
*147 la_data_in[102]
*148 la_data_in[103]
*149 la_data_in[104]
*150 la_data_in[105]
*151 la_data_in[106]
*152 la_data_in[107]
*153 la_data_in[108]
*154 la_data_in[109]
*155 la_data_in[10]
*156 la_data_in[110]
*157 la_data_in[111]
*158 la_data_in[112]
*159 la_data_in[113]
*160 la_data_in[114]
*161 la_data_in[115]
*162 la_data_in[116]
*163 la_data_in[117]
*164 la_data_in[118]
*165 la_data_in[119]
*166 la_data_in[11]
*167 la_data_in[120]
*168 la_data_in[121]
*169 la_data_in[122]
*170 la_data_in[123]
*171 la_data_in[124]
*172 la_data_in[125]
*173 la_data_in[126]
*174 la_data_in[127]
*175 la_data_in[12]
*176 la_data_in[13]
*177 la_data_in[14]
*178 la_data_in[15]
*179 la_data_in[16]
*180 la_data_in[17]
*181 la_data_in[18]
*182 la_data_in[19]
*183 la_data_in[1]
*184 la_data_in[20]
*185 la_data_in[21]
*186 la_data_in[22]
*187 la_data_in[23]
*188 la_data_in[24]
*189 la_data_in[25]
*190 la_data_in[26]
*191 la_data_in[27]
*192 la_data_in[28]
*193 la_data_in[29]
*194 la_data_in[2]
*195 la_data_in[30]
*196 la_data_in[31]
*197 la_data_in[32]
*198 la_data_in[33]
*199 la_data_in[34]
*200 la_data_in[35]
*201 la_data_in[36]
*202 la_data_in[37]
*203 la_data_in[38]
*204 la_data_in[39]
*205 la_data_in[3]
*206 la_data_in[40]
*207 la_data_in[41]
*208 la_data_in[42]
*209 la_data_in[43]
*210 la_data_in[44]
*211 la_data_in[45]
*212 la_data_in[46]
*213 la_data_in[47]
*214 la_data_in[48]
*215 la_data_in[49]
*216 la_data_in[4]
*217 la_data_in[50]
*218 la_data_in[51]
*219 la_data_in[52]
*220 la_data_in[53]
*221 la_data_in[54]
*222 la_data_in[55]
*223 la_data_in[56]
*224 la_data_in[57]
*225 la_data_in[58]
*226 la_data_in[59]
*227 la_data_in[5]
*228 la_data_in[60]
*229 la_data_in[61]
*230 la_data_in[62]
*231 la_data_in[63]
*232 la_data_in[64]
*233 la_data_in[65]
*234 la_data_in[66]
*235 la_data_in[67]
*236 la_data_in[68]
*237 la_data_in[69]
*238 la_data_in[6]
*239 la_data_in[70]
*240 la_data_in[71]
*241 la_data_in[72]
*242 la_data_in[73]
*243 la_data_in[74]
*244 la_data_in[75]
*245 la_data_in[76]
*246 la_data_in[77]
*247 la_data_in[78]
*248 la_data_in[79]
*249 la_data_in[7]
*250 la_data_in[80]
*251 la_data_in[81]
*252 la_data_in[82]
*253 la_data_in[83]
*254 la_data_in[84]
*255 la_data_in[85]
*256 la_data_in[86]
*257 la_data_in[87]
*258 la_data_in[88]
*259 la_data_in[89]
*260 la_data_in[8]
*261 la_data_in[90]
*262 la_data_in[91]
*263 la_data_in[92]
*264 la_data_in[93]
*265 la_data_in[94]
*266 la_data_in[95]
*267 la_data_in[96]
*268 la_data_in[97]
*269 la_data_in[98]
*270 la_data_in[99]
*271 la_data_in[9]
*272 la_data_out[0]
*273 la_data_out[100]
*274 la_data_out[101]
*275 la_data_out[102]
*276 la_data_out[103]
*277 la_data_out[104]
*278 la_data_out[105]
*279 la_data_out[106]
*280 la_data_out[107]
*281 la_data_out[108]
*282 la_data_out[109]
*283 la_data_out[10]
*284 la_data_out[110]
*285 la_data_out[111]
*286 la_data_out[112]
*287 la_data_out[113]
*288 la_data_out[114]
*289 la_data_out[115]
*290 la_data_out[116]
*291 la_data_out[117]
*292 la_data_out[118]
*293 la_data_out[119]
*294 la_data_out[11]
*295 la_data_out[120]
*296 la_data_out[121]
*297 la_data_out[122]
*298 la_data_out[123]
*299 la_data_out[124]
*300 la_data_out[125]
*301 la_data_out[126]
*302 la_data_out[127]
*303 la_data_out[12]
*304 la_data_out[13]
*305 la_data_out[14]
*306 la_data_out[15]
*307 la_data_out[16]
*308 la_data_out[17]
*309 la_data_out[18]
*310 la_data_out[19]
*311 la_data_out[1]
*312 la_data_out[20]
*313 la_data_out[21]
*314 la_data_out[22]
*315 la_data_out[23]
*316 la_data_out[24]
*317 la_data_out[25]
*318 la_data_out[26]
*319 la_data_out[27]
*320 la_data_out[28]
*321 la_data_out[29]
*322 la_data_out[2]
*323 la_data_out[30]
*324 la_data_out[31]
*325 la_data_out[32]
*326 la_data_out[33]
*327 la_data_out[34]
*328 la_data_out[35]
*329 la_data_out[36]
*330 la_data_out[37]
*331 la_data_out[38]
*332 la_data_out[39]
*333 la_data_out[3]
*334 la_data_out[40]
*335 la_data_out[41]
*336 la_data_out[42]
*337 la_data_out[43]
*338 la_data_out[44]
*339 la_data_out[45]
*340 la_data_out[46]
*341 la_data_out[47]
*342 la_data_out[48]
*343 la_data_out[49]
*344 la_data_out[4]
*345 la_data_out[50]
*346 la_data_out[51]
*347 la_data_out[52]
*348 la_data_out[53]
*349 la_data_out[54]
*350 la_data_out[55]
*351 la_data_out[56]
*352 la_data_out[57]
*353 la_data_out[58]
*354 la_data_out[59]
*355 la_data_out[5]
*356 la_data_out[60]
*357 la_data_out[61]
*358 la_data_out[62]
*359 la_data_out[63]
*360 la_data_out[64]
*361 la_data_out[65]
*362 la_data_out[66]
*363 la_data_out[67]
*364 la_data_out[68]
*365 la_data_out[69]
*366 la_data_out[6]
*367 la_data_out[70]
*368 la_data_out[71]
*369 la_data_out[72]
*370 la_data_out[73]
*371 la_data_out[74]
*372 la_data_out[75]
*373 la_data_out[76]
*374 la_data_out[77]
*375 la_data_out[78]
*376 la_data_out[79]
*377 la_data_out[7]
*378 la_data_out[80]
*379 la_data_out[81]
*380 la_data_out[82]
*381 la_data_out[83]
*382 la_data_out[84]
*383 la_data_out[85]
*384 la_data_out[86]
*385 la_data_out[87]
*386 la_data_out[88]
*387 la_data_out[89]
*388 la_data_out[8]
*389 la_data_out[90]
*390 la_data_out[91]
*391 la_data_out[92]
*392 la_data_out[93]
*393 la_data_out[94]
*394 la_data_out[95]
*395 la_data_out[96]
*396 la_data_out[97]
*397 la_data_out[98]
*398 la_data_out[99]
*399 la_data_out[9]
*400 la_oenb[0]
*401 la_oenb[100]
*402 la_oenb[101]
*403 la_oenb[102]
*404 la_oenb[103]
*405 la_oenb[104]
*406 la_oenb[105]
*407 la_oenb[106]
*408 la_oenb[107]
*409 la_oenb[108]
*410 la_oenb[109]
*411 la_oenb[10]
*412 la_oenb[110]
*413 la_oenb[111]
*414 la_oenb[112]
*415 la_oenb[113]
*416 la_oenb[114]
*417 la_oenb[115]
*418 la_oenb[116]
*419 la_oenb[117]
*420 la_oenb[118]
*421 la_oenb[119]
*422 la_oenb[11]
*423 la_oenb[120]
*424 la_oenb[121]
*425 la_oenb[122]
*426 la_oenb[123]
*427 la_oenb[124]
*428 la_oenb[125]
*429 la_oenb[126]
*430 la_oenb[127]
*431 la_oenb[12]
*432 la_oenb[13]
*433 la_oenb[14]
*434 la_oenb[15]
*435 la_oenb[16]
*436 la_oenb[17]
*437 la_oenb[18]
*438 la_oenb[19]
*439 la_oenb[1]
*440 la_oenb[20]
*441 la_oenb[21]
*442 la_oenb[22]
*443 la_oenb[23]
*444 la_oenb[24]
*445 la_oenb[25]
*446 la_oenb[26]
*447 la_oenb[27]
*448 la_oenb[28]
*449 la_oenb[29]
*450 la_oenb[2]
*451 la_oenb[30]
*452 la_oenb[31]
*453 la_oenb[32]
*454 la_oenb[33]
*455 la_oenb[34]
*456 la_oenb[35]
*457 la_oenb[36]
*458 la_oenb[37]
*459 la_oenb[38]
*460 la_oenb[39]
*461 la_oenb[3]
*462 la_oenb[40]
*463 la_oenb[41]
*464 la_oenb[42]
*465 la_oenb[43]
*466 la_oenb[44]
*467 la_oenb[45]
*468 la_oenb[46]
*469 la_oenb[47]
*470 la_oenb[48]
*471 la_oenb[49]
*472 la_oenb[4]
*473 la_oenb[50]
*474 la_oenb[51]
*475 la_oenb[52]
*476 la_oenb[53]
*477 la_oenb[54]
*478 la_oenb[55]
*479 la_oenb[56]
*480 la_oenb[57]
*481 la_oenb[58]
*482 la_oenb[59]
*483 la_oenb[5]
*484 la_oenb[60]
*485 la_oenb[61]
*486 la_oenb[62]
*487 la_oenb[63]
*488 la_oenb[64]
*489 la_oenb[65]
*490 la_oenb[66]
*491 la_oenb[67]
*492 la_oenb[68]
*493 la_oenb[69]
*494 la_oenb[6]
*495 la_oenb[70]
*496 la_oenb[71]
*497 la_oenb[72]
*498 la_oenb[73]
*499 la_oenb[74]
*500 la_oenb[75]
*501 la_oenb[76]
*502 la_oenb[77]
*503 la_oenb[78]
*504 la_oenb[79]
*505 la_oenb[7]
*506 la_oenb[80]
*507 la_oenb[81]
*508 la_oenb[82]
*509 la_oenb[83]
*510 la_oenb[84]
*511 la_oenb[85]
*512 la_oenb[86]
*513 la_oenb[87]
*514 la_oenb[88]
*515 la_oenb[89]
*516 la_oenb[8]
*517 la_oenb[90]
*518 la_oenb[91]
*519 la_oenb[92]
*520 la_oenb[93]
*521 la_oenb[94]
*522 la_oenb[95]
*523 la_oenb[96]
*524 la_oenb[97]
*525 la_oenb[98]
*526 la_oenb[99]
*527 la_oenb[9]
*528 user_clock2
*529 user_irq[0]
*530 user_irq[1]
*531 user_irq[2]
*540 wb_clk_i
*541 wb_rst_i
*542 wbs_ack_o
*543 wbs_adr_i[0]
*544 wbs_adr_i[10]
*545 wbs_adr_i[11]
*546 wbs_adr_i[12]
*547 wbs_adr_i[13]
*548 wbs_adr_i[14]
*549 wbs_adr_i[15]
*550 wbs_adr_i[16]
*551 wbs_adr_i[17]
*552 wbs_adr_i[18]
*553 wbs_adr_i[19]
*554 wbs_adr_i[1]
*555 wbs_adr_i[20]
*556 wbs_adr_i[21]
*557 wbs_adr_i[22]
*558 wbs_adr_i[23]
*559 wbs_adr_i[24]
*560 wbs_adr_i[25]
*561 wbs_adr_i[26]
*562 wbs_adr_i[27]
*563 wbs_adr_i[28]
*564 wbs_adr_i[29]
*565 wbs_adr_i[2]
*566 wbs_adr_i[30]
*567 wbs_adr_i[31]
*568 wbs_adr_i[3]
*569 wbs_adr_i[4]
*570 wbs_adr_i[5]
*571 wbs_adr_i[6]
*572 wbs_adr_i[7]
*573 wbs_adr_i[8]
*574 wbs_adr_i[9]
*575 wbs_cyc_i
*576 wbs_dat_i[0]
*577 wbs_dat_i[10]
*578 wbs_dat_i[11]
*579 wbs_dat_i[12]
*580 wbs_dat_i[13]
*581 wbs_dat_i[14]
*582 wbs_dat_i[15]
*583 wbs_dat_i[16]
*584 wbs_dat_i[17]
*585 wbs_dat_i[18]
*586 wbs_dat_i[19]
*587 wbs_dat_i[1]
*588 wbs_dat_i[20]
*589 wbs_dat_i[21]
*590 wbs_dat_i[22]
*591 wbs_dat_i[23]
*592 wbs_dat_i[24]
*593 wbs_dat_i[25]
*594 wbs_dat_i[26]
*595 wbs_dat_i[27]
*596 wbs_dat_i[28]
*597 wbs_dat_i[29]
*598 wbs_dat_i[2]
*599 wbs_dat_i[30]
*600 wbs_dat_i[31]
*601 wbs_dat_i[3]
*602 wbs_dat_i[4]
*603 wbs_dat_i[5]
*604 wbs_dat_i[6]
*605 wbs_dat_i[7]
*606 wbs_dat_i[8]
*607 wbs_dat_i[9]
*608 wbs_dat_o[0]
*609 wbs_dat_o[10]
*610 wbs_dat_o[11]
*611 wbs_dat_o[12]
*612 wbs_dat_o[13]
*613 wbs_dat_o[14]
*614 wbs_dat_o[15]
*615 wbs_dat_o[16]
*616 wbs_dat_o[17]
*617 wbs_dat_o[18]
*618 wbs_dat_o[19]
*619 wbs_dat_o[1]
*620 wbs_dat_o[20]
*621 wbs_dat_o[21]
*622 wbs_dat_o[22]
*623 wbs_dat_o[23]
*624 wbs_dat_o[24]
*625 wbs_dat_o[25]
*626 wbs_dat_o[26]
*627 wbs_dat_o[27]
*628 wbs_dat_o[28]
*629 wbs_dat_o[29]
*630 wbs_dat_o[2]
*631 wbs_dat_o[30]
*632 wbs_dat_o[31]
*633 wbs_dat_o[3]
*634 wbs_dat_o[4]
*635 wbs_dat_o[5]
*636 wbs_dat_o[6]
*637 wbs_dat_o[7]
*638 wbs_dat_o[8]
*639 wbs_dat_o[9]
*640 wbs_sel_i[0]
*641 wbs_sel_i[1]
*642 wbs_sel_i[2]
*643 wbs_sel_i[3]
*644 wbs_stb_i
*645 wbs_we_i
*646 dffram_addr\[0\]
*647 dffram_addr\[1\]
*648 dffram_addr\[2\]
*649 dffram_addr\[3\]
*650 dffram_addr\[4\]
*651 dffram_addr\[5\]
*652 dffram_addr\[6\]
*653 dffram_addr\[7\]
*654 dffram_addr\[8\]
*655 dffram_en
*656 dffram_rdata\[0\]
*657 dffram_rdata\[10\]
*658 dffram_rdata\[11\]
*659 dffram_rdata\[12\]
*660 dffram_rdata\[13\]
*661 dffram_rdata\[14\]
*662 dffram_rdata\[15\]
*663 dffram_rdata\[16\]
*664 dffram_rdata\[17\]
*665 dffram_rdata\[18\]
*666 dffram_rdata\[19\]
*667 dffram_rdata\[1\]
*668 dffram_rdata\[20\]
*669 dffram_rdata\[21\]
*670 dffram_rdata\[22\]
*671 dffram_rdata\[23\]
*672 dffram_rdata\[24\]
*673 dffram_rdata\[25\]
*674 dffram_rdata\[26\]
*675 dffram_rdata\[27\]
*676 dffram_rdata\[28\]
*677 dffram_rdata\[29\]
*678 dffram_rdata\[2\]
*679 dffram_rdata\[30\]
*680 dffram_rdata\[31\]
*681 dffram_rdata\[3\]
*682 dffram_rdata\[4\]
*683 dffram_rdata\[5\]
*684 dffram_rdata\[6\]
*685 dffram_rdata\[7\]
*686 dffram_rdata\[8\]
*687 dffram_rdata\[9\]
*688 dffram_wdata\[0\]
*689 dffram_wdata\[10\]
*690 dffram_wdata\[11\]
*691 dffram_wdata\[12\]
*692 dffram_wdata\[13\]
*693 dffram_wdata\[14\]
*694 dffram_wdata\[15\]
*695 dffram_wdata\[16\]
*696 dffram_wdata\[17\]
*697 dffram_wdata\[18\]
*698 dffram_wdata\[19\]
*699 dffram_wdata\[1\]
*700 dffram_wdata\[20\]
*701 dffram_wdata\[21\]
*702 dffram_wdata\[22\]
*703 dffram_wdata\[23\]
*704 dffram_wdata\[24\]
*705 dffram_wdata\[25\]
*706 dffram_wdata\[26\]
*707 dffram_wdata\[27\]
*708 dffram_wdata\[28\]
*709 dffram_wdata\[29\]
*710 dffram_wdata\[2\]
*711 dffram_wdata\[30\]
*712 dffram_wdata\[31\]
*713 dffram_wdata\[3\]
*714 dffram_wdata\[4\]
*715 dffram_wdata\[5\]
*716 dffram_wdata\[6\]
*717 dffram_wdata\[7\]
*718 dffram_wdata\[8\]
*719 dffram_wdata\[9\]
*720 dffram_we\[0\]
*721 dffram_we\[1\]
*722 dffram_we\[2\]
*723 dffram_we\[3\]
*724 mem_addr\[0\]
*725 mem_addr\[1\]
*726 mem_addr\[2\]
*727 mem_addr\[3\]
*728 mem_addr\[4\]
*729 mem_addr\[5\]
*730 mem_addr\[6\]
*731 mem_addr\[7\]
*732 mem_addr\[8\]
*733 mem_en
*734 mem_rdata\[0\]
*735 mem_rdata\[10\]
*736 mem_rdata\[11\]
*737 mem_rdata\[12\]
*738 mem_rdata\[13\]
*739 mem_rdata\[14\]
*740 mem_rdata\[15\]
*741 mem_rdata\[16\]
*742 mem_rdata\[17\]
*743 mem_rdata\[18\]
*744 mem_rdata\[19\]
*745 mem_rdata\[1\]
*746 mem_rdata\[20\]
*747 mem_rdata\[21\]
*748 mem_rdata\[22\]
*749 mem_rdata\[23\]
*750 mem_rdata\[24\]
*751 mem_rdata\[25\]
*752 mem_rdata\[26\]
*753 mem_rdata\[27\]
*754 mem_rdata\[28\]
*755 mem_rdata\[29\]
*756 mem_rdata\[2\]
*757 mem_rdata\[30\]
*758 mem_rdata\[31\]
*759 mem_rdata\[3\]
*760 mem_rdata\[4\]
*761 mem_rdata\[5\]
*762 mem_rdata\[6\]
*763 mem_rdata\[7\]
*764 mem_rdata\[8\]
*765 mem_rdata\[9\]
*766 mem_wdata\[0\]
*767 mem_wdata\[10\]
*768 mem_wdata\[11\]
*769 mem_wdata\[12\]
*770 mem_wdata\[13\]
*771 mem_wdata\[14\]
*772 mem_wdata\[15\]
*773 mem_wdata\[16\]
*774 mem_wdata\[17\]
*775 mem_wdata\[18\]
*776 mem_wdata\[19\]
*777 mem_wdata\[1\]
*778 mem_wdata\[20\]
*779 mem_wdata\[21\]
*780 mem_wdata\[22\]
*781 mem_wdata\[23\]
*782 mem_wdata\[24\]
*783 mem_wdata\[25\]
*784 mem_wdata\[26\]
*785 mem_wdata\[27\]
*786 mem_wdata\[28\]
*787 mem_wdata\[29\]
*788 mem_wdata\[2\]
*789 mem_wdata\[30\]
*790 mem_wdata\[31\]
*791 mem_wdata\[3\]
*792 mem_wdata\[4\]
*793 mem_wdata\[5\]
*794 mem_wdata\[6\]
*795 mem_wdata\[7\]
*796 mem_wdata\[8\]
*797 mem_wdata\[9\]
*798 mem_we\[0\]
*799 mem_we\[1\]
*800 mem_we\[2\]
*801 mem_we\[3\]
*802 u_dffram
*803 u_memory_arb
*804 u_soc

*PORTS
analog_io[0] I
analog_io[10] I
analog_io[11] I
analog_io[12] I
analog_io[13] I
analog_io[14] I
analog_io[15] I
analog_io[16] I
analog_io[17] I
analog_io[18] I
analog_io[19] I
analog_io[1] I
analog_io[20] I
analog_io[21] I
analog_io[22] I
analog_io[23] I
analog_io[24] I
analog_io[25] I
analog_io[26] I
analog_io[27] I
analog_io[28] I
analog_io[2] I
analog_io[3] I
analog_io[4] I
analog_io[5] I
analog_io[6] I
analog_io[7] I
analog_io[8] I
analog_io[9] I
io_in[0] I
io_in[10] I
io_in[11] I
io_in[12] I
io_in[13] I
io_in[14] I
io_in[15] I
io_in[16] I
io_in[17] I
io_in[18] I
io_in[19] I
io_in[1] I
io_in[20] I
io_in[21] I
io_in[22] I
io_in[23] I
io_in[24] I
io_in[25] I
io_in[26] I
io_in[27] I
io_in[28] I
io_in[29] I
io_in[2] I
io_in[30] I
io_in[31] I
io_in[32] I
io_in[33] I
io_in[34] I
io_in[35] I
io_in[36] I
io_in[37] I
io_in[3] I
io_in[4] I
io_in[5] I
io_in[6] I
io_in[7] I
io_in[8] I
io_in[9] I
io_oeb[0] O
io_oeb[10] O
io_oeb[11] O
io_oeb[12] O
io_oeb[13] O
io_oeb[14] O
io_oeb[15] O
io_oeb[16] O
io_oeb[17] O
io_oeb[18] O
io_oeb[19] O
io_oeb[1] O
io_oeb[20] O
io_oeb[21] O
io_oeb[22] O
io_oeb[23] O
io_oeb[24] O
io_oeb[25] O
io_oeb[26] O
io_oeb[27] O
io_oeb[28] O
io_oeb[29] O
io_oeb[2] O
io_oeb[30] O
io_oeb[31] O
io_oeb[32] O
io_oeb[33] O
io_oeb[34] O
io_oeb[35] O
io_oeb[36] O
io_oeb[37] O
io_oeb[3] O
io_oeb[4] O
io_oeb[5] O
io_oeb[6] O
io_oeb[7] O
io_oeb[8] O
io_oeb[9] O
io_out[0] O
io_out[10] O
io_out[11] O
io_out[12] O
io_out[13] O
io_out[14] O
io_out[15] O
io_out[16] O
io_out[17] O
io_out[18] O
io_out[19] O
io_out[1] O
io_out[20] O
io_out[21] O
io_out[22] O
io_out[23] O
io_out[24] O
io_out[25] O
io_out[26] O
io_out[27] O
io_out[28] O
io_out[29] O
io_out[2] O
io_out[30] O
io_out[31] O
io_out[32] O
io_out[33] O
io_out[34] O
io_out[35] O
io_out[36] O
io_out[37] O
io_out[3] O
io_out[4] O
io_out[5] O
io_out[6] O
io_out[7] O
io_out[8] O
io_out[9] O
la_data_in[0] I
la_data_in[100] I
la_data_in[101] I
la_data_in[102] I
la_data_in[103] I
la_data_in[104] I
la_data_in[105] I
la_data_in[106] I
la_data_in[107] I
la_data_in[108] I
la_data_in[109] I
la_data_in[10] I
la_data_in[110] I
la_data_in[111] I
la_data_in[112] I
la_data_in[113] I
la_data_in[114] I
la_data_in[115] I
la_data_in[116] I
la_data_in[117] I
la_data_in[118] I
la_data_in[119] I
la_data_in[11] I
la_data_in[120] I
la_data_in[121] I
la_data_in[122] I
la_data_in[123] I
la_data_in[124] I
la_data_in[125] I
la_data_in[126] I
la_data_in[127] I
la_data_in[12] I
la_data_in[13] I
la_data_in[14] I
la_data_in[15] I
la_data_in[16] I
la_data_in[17] I
la_data_in[18] I
la_data_in[19] I
la_data_in[1] I
la_data_in[20] I
la_data_in[21] I
la_data_in[22] I
la_data_in[23] I
la_data_in[24] I
la_data_in[25] I
la_data_in[26] I
la_data_in[27] I
la_data_in[28] I
la_data_in[29] I
la_data_in[2] I
la_data_in[30] I
la_data_in[31] I
la_data_in[32] I
la_data_in[33] I
la_data_in[34] I
la_data_in[35] I
la_data_in[36] I
la_data_in[37] I
la_data_in[38] I
la_data_in[39] I
la_data_in[3] I
la_data_in[40] I
la_data_in[41] I
la_data_in[42] I
la_data_in[43] I
la_data_in[44] I
la_data_in[45] I
la_data_in[46] I
la_data_in[47] I
la_data_in[48] I
la_data_in[49] I
la_data_in[4] I
la_data_in[50] I
la_data_in[51] I
la_data_in[52] I
la_data_in[53] I
la_data_in[54] I
la_data_in[55] I
la_data_in[56] I
la_data_in[57] I
la_data_in[58] I
la_data_in[59] I
la_data_in[5] I
la_data_in[60] I
la_data_in[61] I
la_data_in[62] I
la_data_in[63] I
la_data_in[64] I
la_data_in[65] I
la_data_in[66] I
la_data_in[67] I
la_data_in[68] I
la_data_in[69] I
la_data_in[6] I
la_data_in[70] I
la_data_in[71] I
la_data_in[72] I
la_data_in[73] I
la_data_in[74] I
la_data_in[75] I
la_data_in[76] I
la_data_in[77] I
la_data_in[78] I
la_data_in[79] I
la_data_in[7] I
la_data_in[80] I
la_data_in[81] I
la_data_in[82] I
la_data_in[83] I
la_data_in[84] I
la_data_in[85] I
la_data_in[86] I
la_data_in[87] I
la_data_in[88] I
la_data_in[89] I
la_data_in[8] I
la_data_in[90] I
la_data_in[91] I
la_data_in[92] I
la_data_in[93] I
la_data_in[94] I
la_data_in[95] I
la_data_in[96] I
la_data_in[97] I
la_data_in[98] I
la_data_in[99] I
la_data_in[9] I
la_data_out[0] O
la_data_out[100] O
la_data_out[101] O
la_data_out[102] O
la_data_out[103] O
la_data_out[104] O
la_data_out[105] O
la_data_out[106] O
la_data_out[107] O
la_data_out[108] O
la_data_out[109] O
la_data_out[10] O
la_data_out[110] O
la_data_out[111] O
la_data_out[112] O
la_data_out[113] O
la_data_out[114] O
la_data_out[115] O
la_data_out[116] O
la_data_out[117] O
la_data_out[118] O
la_data_out[119] O
la_data_out[11] O
la_data_out[120] O
la_data_out[121] O
la_data_out[122] O
la_data_out[123] O
la_data_out[124] O
la_data_out[125] O
la_data_out[126] O
la_data_out[127] O
la_data_out[12] O
la_data_out[13] O
la_data_out[14] O
la_data_out[15] O
la_data_out[16] O
la_data_out[17] O
la_data_out[18] O
la_data_out[19] O
la_data_out[1] O
la_data_out[20] O
la_data_out[21] O
la_data_out[22] O
la_data_out[23] O
la_data_out[24] O
la_data_out[25] O
la_data_out[26] O
la_data_out[27] O
la_data_out[28] O
la_data_out[29] O
la_data_out[2] O
la_data_out[30] O
la_data_out[31] O
la_data_out[32] O
la_data_out[33] O
la_data_out[34] O
la_data_out[35] O
la_data_out[36] O
la_data_out[37] O
la_data_out[38] O
la_data_out[39] O
la_data_out[3] O
la_data_out[40] O
la_data_out[41] O
la_data_out[42] O
la_data_out[43] O
la_data_out[44] O
la_data_out[45] O
la_data_out[46] O
la_data_out[47] O
la_data_out[48] O
la_data_out[49] O
la_data_out[4] O
la_data_out[50] O
la_data_out[51] O
la_data_out[52] O
la_data_out[53] O
la_data_out[54] O
la_data_out[55] O
la_data_out[56] O
la_data_out[57] O
la_data_out[58] O
la_data_out[59] O
la_data_out[5] O
la_data_out[60] O
la_data_out[61] O
la_data_out[62] O
la_data_out[63] O
la_data_out[64] O
la_data_out[65] O
la_data_out[66] O
la_data_out[67] O
la_data_out[68] O
la_data_out[69] O
la_data_out[6] O
la_data_out[70] O
la_data_out[71] O
la_data_out[72] O
la_data_out[73] O
la_data_out[74] O
la_data_out[75] O
la_data_out[76] O
la_data_out[77] O
la_data_out[78] O
la_data_out[79] O
la_data_out[7] O
la_data_out[80] O
la_data_out[81] O
la_data_out[82] O
la_data_out[83] O
la_data_out[84] O
la_data_out[85] O
la_data_out[86] O
la_data_out[87] O
la_data_out[88] O
la_data_out[89] O
la_data_out[8] O
la_data_out[90] O
la_data_out[91] O
la_data_out[92] O
la_data_out[93] O
la_data_out[94] O
la_data_out[95] O
la_data_out[96] O
la_data_out[97] O
la_data_out[98] O
la_data_out[99] O
la_data_out[9] O
la_oenb[0] I
la_oenb[100] I
la_oenb[101] I
la_oenb[102] I
la_oenb[103] I
la_oenb[104] I
la_oenb[105] I
la_oenb[106] I
la_oenb[107] I
la_oenb[108] I
la_oenb[109] I
la_oenb[10] I
la_oenb[110] I
la_oenb[111] I
la_oenb[112] I
la_oenb[113] I
la_oenb[114] I
la_oenb[115] I
la_oenb[116] I
la_oenb[117] I
la_oenb[118] I
la_oenb[119] I
la_oenb[11] I
la_oenb[120] I
la_oenb[121] I
la_oenb[122] I
la_oenb[123] I
la_oenb[124] I
la_oenb[125] I
la_oenb[126] I
la_oenb[127] I
la_oenb[12] I
la_oenb[13] I
la_oenb[14] I
la_oenb[15] I
la_oenb[16] I
la_oenb[17] I
la_oenb[18] I
la_oenb[19] I
la_oenb[1] I
la_oenb[20] I
la_oenb[21] I
la_oenb[22] I
la_oenb[23] I
la_oenb[24] I
la_oenb[25] I
la_oenb[26] I
la_oenb[27] I
la_oenb[28] I
la_oenb[29] I
la_oenb[2] I
la_oenb[30] I
la_oenb[31] I
la_oenb[32] I
la_oenb[33] I
la_oenb[34] I
la_oenb[35] I
la_oenb[36] I
la_oenb[37] I
la_oenb[38] I
la_oenb[39] I
la_oenb[3] I
la_oenb[40] I
la_oenb[41] I
la_oenb[42] I
la_oenb[43] I
la_oenb[44] I
la_oenb[45] I
la_oenb[46] I
la_oenb[47] I
la_oenb[48] I
la_oenb[49] I
la_oenb[4] I
la_oenb[50] I
la_oenb[51] I
la_oenb[52] I
la_oenb[53] I
la_oenb[54] I
la_oenb[55] I
la_oenb[56] I
la_oenb[57] I
la_oenb[58] I
la_oenb[59] I
la_oenb[5] I
la_oenb[60] I
la_oenb[61] I
la_oenb[62] I
la_oenb[63] I
la_oenb[64] I
la_oenb[65] I
la_oenb[66] I
la_oenb[67] I
la_oenb[68] I
la_oenb[69] I
la_oenb[6] I
la_oenb[70] I
la_oenb[71] I
la_oenb[72] I
la_oenb[73] I
la_oenb[74] I
la_oenb[75] I
la_oenb[76] I
la_oenb[77] I
la_oenb[78] I
la_oenb[79] I
la_oenb[7] I
la_oenb[80] I
la_oenb[81] I
la_oenb[82] I
la_oenb[83] I
la_oenb[84] I
la_oenb[85] I
la_oenb[86] I
la_oenb[87] I
la_oenb[88] I
la_oenb[89] I
la_oenb[8] I
la_oenb[90] I
la_oenb[91] I
la_oenb[92] I
la_oenb[93] I
la_oenb[94] I
la_oenb[95] I
la_oenb[96] I
la_oenb[97] I
la_oenb[98] I
la_oenb[99] I
la_oenb[9] I
user_clock2 I
user_irq[0] O
user_irq[1] O
user_irq[2] O
wb_clk_i I
wb_rst_i I
wbs_ack_o O
wbs_adr_i[0] I
wbs_adr_i[10] I
wbs_adr_i[11] I
wbs_adr_i[12] I
wbs_adr_i[13] I
wbs_adr_i[14] I
wbs_adr_i[15] I
wbs_adr_i[16] I
wbs_adr_i[17] I
wbs_adr_i[18] I
wbs_adr_i[19] I
wbs_adr_i[1] I
wbs_adr_i[20] I
wbs_adr_i[21] I
wbs_adr_i[22] I
wbs_adr_i[23] I
wbs_adr_i[24] I
wbs_adr_i[25] I
wbs_adr_i[26] I
wbs_adr_i[27] I
wbs_adr_i[28] I
wbs_adr_i[29] I
wbs_adr_i[2] I
wbs_adr_i[30] I
wbs_adr_i[31] I
wbs_adr_i[3] I
wbs_adr_i[4] I
wbs_adr_i[5] I
wbs_adr_i[6] I
wbs_adr_i[7] I
wbs_adr_i[8] I
wbs_adr_i[9] I
wbs_cyc_i I
wbs_dat_i[0] I
wbs_dat_i[10] I
wbs_dat_i[11] I
wbs_dat_i[12] I
wbs_dat_i[13] I
wbs_dat_i[14] I
wbs_dat_i[15] I
wbs_dat_i[16] I
wbs_dat_i[17] I
wbs_dat_i[18] I
wbs_dat_i[19] I
wbs_dat_i[1] I
wbs_dat_i[20] I
wbs_dat_i[21] I
wbs_dat_i[22] I
wbs_dat_i[23] I
wbs_dat_i[24] I
wbs_dat_i[25] I
wbs_dat_i[26] I
wbs_dat_i[27] I
wbs_dat_i[28] I
wbs_dat_i[29] I
wbs_dat_i[2] I
wbs_dat_i[30] I
wbs_dat_i[31] I
wbs_dat_i[3] I
wbs_dat_i[4] I
wbs_dat_i[5] I
wbs_dat_i[6] I
wbs_dat_i[7] I
wbs_dat_i[8] I
wbs_dat_i[9] I
wbs_dat_o[0] O
wbs_dat_o[10] O
wbs_dat_o[11] O
wbs_dat_o[12] O
wbs_dat_o[13] O
wbs_dat_o[14] O
wbs_dat_o[15] O
wbs_dat_o[16] O
wbs_dat_o[17] O
wbs_dat_o[18] O
wbs_dat_o[19] O
wbs_dat_o[1] O
wbs_dat_o[20] O
wbs_dat_o[21] O
wbs_dat_o[22] O
wbs_dat_o[23] O
wbs_dat_o[24] O
wbs_dat_o[25] O
wbs_dat_o[26] O
wbs_dat_o[27] O
wbs_dat_o[28] O
wbs_dat_o[29] O
wbs_dat_o[2] O
wbs_dat_o[30] O
wbs_dat_o[31] O
wbs_dat_o[3] O
wbs_dat_o[4] O
wbs_dat_o[5] O
wbs_dat_o[6] O
wbs_dat_o[7] O
wbs_dat_o[8] O
wbs_dat_o[9] O
wbs_sel_i[0] I
wbs_sel_i[1] I
wbs_sel_i[2] I
wbs_sel_i[3] I
wbs_stb_i I
wbs_we_i I

*D_NET *30 0.239122
*CONN
*P io_in[0] I
*I *804:io_in[0] I *D picorv32_soc
*CAP
1 io_in[0] 0.00843438
2 *804:io_in[0] 0.0084759
3 *30:17 0.105088
4 *30:15 0.105046
5 *30:15 io_out[0] 0.0120773
6 *30:17 *678:14 0
7 *30:17 *714:9 0
8 *30:17 *721:11 0
*RES
1 io_in[0] *30:15 31.685 
2 *30:15 *30:17 252.799 
3 *30:17 *804:io_in[0] 22.6765 
*END

*D_NET *31 0.355871
*CONN
*P io_in[10] I
*I *804:io_in[10] I *D picorv32_soc
*CAP
1 io_in[10] 0.103483
2 *804:io_in[10] 0.0021687
3 *31:9 0.074452
4 *31:7 0.0722833
5 *31:5 0.103483
6 *31:9 *35:9 0
*RES
1 io_in[10] *31:5 255.577 
2 *31:5 *31:7 0.5 
3 *31:7 *31:9 195.475 
4 *31:9 *804:io_in[10] 5.64647 
*END

*D_NET *32 0.376283
*CONN
*P io_in[11] I
*I *804:io_in[11] I *D picorv32_soc
*CAP
1 io_in[11] 0.0945486
2 *804:io_in[11] 0.0107534
3 *32:9 0.0927807
4 *32:7 0.0820273
5 *32:5 0.0945486
6 *32:9 *33:9 0
7 *32:9 *103:9 0
8 *32:9 *141:9 0
9 *32:9 *787:18 0.00162412
*RES
1 io_in[11] *32:5 233.785 
2 *32:5 *32:7 0.5 
3 *32:7 *32:9 224.501 
4 *32:9 *804:io_in[11] 27.4382 
*END

*D_NET *33 0.421419
*CONN
*P io_in[12] I
*I *804:io_in[12] I *D picorv32_soc
*CAP
1 io_in[12] 0.0883068
2 *804:io_in[12] 0.0112305
3 *33:9 0.0924469
4 *33:7 0.0812164
5 *33:5 0.0883068
6 *33:9 *141:9 0.0510971
7 *33:9 *755:13 0.00238755
8 *33:9 *757:13 0.00413892
9 *33:9 *780:13 0.00228761
10 *32:9 *33:9 0
*RES
1 io_in[12] *33:5 232.853 
2 *33:5 *33:7 0.5 
3 *33:7 *33:9 253.356 
4 *33:9 *804:io_in[12] 28.4946 
*END

*D_NET *34 0.424519
*CONN
*P io_in[13] I
*I *804:io_in[13] I *D picorv32_soc
*CAP
1 io_in[13] 0.0975711
2 *804:io_in[13] 0.00156886
3 *34:9 0.0971513
4 *34:7 0.0955824
5 *34:5 0.0975711
6 *34:9 *35:9 0
7 *34:9 *73:9 0
8 *34:9 *140:9 0.035074
*RES
1 io_in[13] *34:5 257.325 
2 *34:5 *34:7 0.5 
3 *34:7 *34:9 282.469 
4 *34:9 *804:io_in[13] 3.89847 
*END

*D_NET *35 0.429553
*CONN
*P io_in[14] I
*I *804:io_in[14] I *D picorv32_soc
*CAP
1 io_in[14] 0.0972273
2 *804:io_in[14] 0.00190168
3 *35:9 0.116578
4 *35:7 0.114676
5 *35:5 0.0972273
6 *35:9 *803:cpu_mem_wdata[15] 0.0019428
7 *35:9 *140:9 0
8 *31:9 *35:9 0
9 *34:9 *35:9 0
*RES
1 io_in[14] *35:5 256.509 
2 *35:5 *35:7 0.5 
3 *35:7 *35:9 311.496 
4 *35:9 *804:io_in[14] 4.7142 
*END

*D_NET *36 0.626601
*CONN
*P io_in[15] I
*I *804:io_in[15] I *D picorv32_soc
*CAP
1 io_in[15] 0.00017605
2 *804:io_in[15] 1.88009e-05
3 *36:21 0.0202639
4 *36:19 0.156684
5 *36:13 0.2391
6 *36:11 0.102838
7 *804:io_in[15] *759:17 0
8 *804:io_in[15] *799:21 4.21127e-05
9 *36:19 *661:11 0.0153555
10 *36:19 *662:11 0.0144288
11 *36:19 *663:11 0.014029
12 *36:19 *665:11 0.0134298
13 *36:19 *666:11 0.0141221
14 *36:19 *669:11 0.0168307
15 *36:19 *671:11 0.0060691
16 *36:19 *672:11 0.00603406
17 *36:19 *673:11 0.0071802
18 *36:21 *112:10 0
*RES
1 io_in[15] *36:11 3.2179 
2 *36:11 *36:13 271.1 
3 *36:13 *36:19 31.6173 
4 *36:19 *36:21 54.1297 
5 *36:21 *804:io_in[15] 1.06713 
*END

*D_NET *37 0.449264
*CONN
*P io_in[16] I
*I *804:io_in[16] I *D picorv32_soc
*CAP
1 io_in[16] 0.0880178
2 *804:io_in[16] 0.0179111
3 *37:11 0.0179111
4 *37:9 0.086471
5 *37:7 0.086471
6 *37:5 0.0880178
7 *37:9 *38:9 0
8 *37:9 *665:11 0
9 *37:9 *668:11 0.0614202
10 *37:9 *670:11 0.00304341
*RES
1 io_in[16] *37:5 1600.94 
2 *37:5 *37:7 0.5 
3 *37:7 *37:9 262.821 
4 *37:9 *37:11 0.5 
5 *37:11 *804:io_in[16] 325.432 
*END

*D_NET *38 0.388088
*CONN
*P io_in[17] I
*I *804:io_in[17] I *D picorv32_soc
*CAP
1 io_in[17] 0.0877535
2 *804:io_in[17] 0.0181887
3 *38:11 0.0181887
4 *38:9 0.0881019
5 *38:7 0.0881019
6 *38:5 0.0877535
7 *38:9 *39:17 0
8 *37:9 *38:9 0
*RES
1 io_in[17] *38:5 1595.84 
2 *38:5 *38:7 0.5 
3 *38:7 *38:9 223.782 
4 *38:9 *38:11 0.5 
5 *38:11 *804:io_in[17] 330.533 
*END

*D_NET *39 0.357907
*CONN
*P io_in[18] I
*I *804:io_in[18] I *D picorv32_soc
*CAP
1 io_in[18] 0.00044336
2 *804:io_in[18] 0.0184693
3 *39:19 0.0184693
4 *39:17 0.0724738
5 *39:15 0.0724738
6 *39:13 0.0872559
7 *39:11 0.0876993
8 *39:11 *113:9 0.000622404
9 *39:17 *40:9 0
10 *38:9 *39:17 0
*RES
1 io_in[18] *39:11 6.0445 
2 *39:11 *39:13 1586.71 
3 *39:13 *39:15 0.5 
4 *39:15 *39:17 183.928 
5 *39:17 *39:19 0.5 
6 *39:19 *804:io_in[18] 335.633 
*END

*D_NET *40 0.323495
*CONN
*P io_in[19] I
*I *804:io_in[19] I *D picorv32_soc
*CAP
1 io_in[19] 0.0872183
2 *804:io_in[19] 0.0187502
3 *40:11 0.0187502
4 *40:9 0.0557788
5 *40:7 0.0557788
6 *40:5 0.0872183
7 *40:9 *42:9 0
8 *39:17 *40:9 0
*RES
1 io_in[19] *40:5 1585.64 
2 *40:5 *40:7 0.5 
3 *40:7 *40:9 145.821 
4 *40:9 *40:11 0.5 
5 *40:11 *804:io_in[19] 340.733 
*END

*D_NET *41 0.333497
*CONN
*P io_in[1] I
*I *804:io_in[1] I *D picorv32_soc
*CAP
1 io_in[1] 0.0588389
2 *804:io_in[1] 0.0137021
3 *41:5 0.072541
4 *41:5 *531:14 0.162602
5 *41:5 *655:11 0
6 *41:5 *722:11 0.0258135
*RES
1 io_in[1] *41:5 248.585 
2 *41:5 *804:io_in[1] 36.6909 
*END

*D_NET *42 0.2966
*CONN
*P io_in[20] I
*I *804:io_in[20] I *D picorv32_soc
*CAP
1 io_in[20] 0.0869543
2 *804:io_in[20] 0.0190278
3 *42:11 0.0190278
4 *42:9 0.0423176
5 *42:7 0.0423176
6 *42:5 0.0869543
7 *42:9 *74:9 0
8 *40:9 *42:9 0
*RES
1 io_in[20] *42:5 1580.54 
2 *42:5 *42:7 0.5 
3 *42:7 *42:9 106.783 
4 *42:9 *42:11 0.5 
5 *42:11 *804:io_in[20] 345.832 
*END

*D_NET *43 0.284151
*CONN
*P io_in[21] I
*I *804:io_in[21] I *D picorv32_soc
*CAP
1 io_in[21] 0.105111
2 *804:io_in[21] 0.00527717
3 *43:9 0.0204657
4 *43:7 0.0151886
5 *43:5 0.105111
6 *804:io_in[21] *804:mem_rdata[24] 0.000355504
7 *804:io_in[21] *804:mem_rdata[31] 0.00653726
8 *804:io_in[21] *766:25 0.00297583
9 *804:io_in[21] *777:17 0.0159154
10 *43:5 *797:13 0.000223856
11 *43:9 *804:mem_rdata[21] 0.00312396
12 *43:9 *804:mem_rdata[24] 0.0038655
13 *43:9 *777:9 0
14 *43:9 *793:9 0
*RES
1 io_in[21] *43:5 1914.21 
2 *43:5 *43:7 2 
3 *43:7 *43:9 260.925 
4 *43:9 *804:io_in[21] 39.0225 
*END

*D_NET *44 0.236723
*CONN
*P io_in[22] I
*I *804:io_in[22] I *D picorv32_soc
*CAP
1 io_in[22] 0.105617
2 *804:io_in[22] 0.0103312
3 *44:5 0.115948
4 *804:io_in[22] *804:mem_rdata[28] 0.00208307
5 *804:io_in[22] *804:mem_rdata[30] 0.000479
6 *804:io_in[22] *777:17 0
7 *804:io_in[22] *798:19 0.00201522
8 *44:5 *804:mem_rdata[22] 0.00024923
9 *44:5 *804:mem_rdata[29] 0
10 *44:5 *779:7 0
*RES
1 io_in[22] *44:5 1922.24 
2 *44:5 *804:io_in[22] 33.9542 
*END

*D_NET *45 0.225442
*CONN
*P io_in[23] I
*I *804:io_in[23] I *D picorv32_soc
*CAP
1 io_in[23] 0.105836
2 *804:io_in[23] 0.0021478
3 *45:5 0.107984
4 *804:io_in[23] *83:8 0.00591462
5 *804:io_in[23] *129:25 0
6 *804:io_in[23] *726:25 0.000564161
7 *804:io_in[23] *727:16 0.000401756
8 *804:io_in[23] *799:25 0.00259416
*RES
1 io_in[23] *45:5 1927.85 
2 *45:5 *804:io_in[23] 11.2929 
*END

*D_NET *46 0.280403
*CONN
*P io_in[24] I
*I *804:io_in[24] I *D picorv32_soc
*CAP
1 io_in[24] 0.012195
2 *804:io_in[24] 0.000557341
3 *46:15 0.103596
4 *46:13 0.115234
5 *46:15 *126:19 0.00646985
6 *46:15 *127:9 0.0415002
7 *46:15 *745:10 0.000426039
8 *46:15 *798:23 0.000425318
*RES
1 io_in[24] *46:13 32.5023 
2 *46:13 *46:15 315.803 
3 *46:15 *804:io_in[24] 1.68433 
*END

*D_NET *47 0.238079
*CONN
*P io_in[25] I
*I *804:io_in[25] I *D picorv32_soc
*CAP
1 io_in[25] 0.000852403
2 *804:io_in[25] 0.0122851
3 *47:11 0.118187
4 *47:9 0.106755
*RES
1 io_in[25] *47:9 2.6242 
2 *47:9 *47:11 287.982 
3 *47:11 *804:io_in[25] 31.4003 
*END

*D_NET *48 0.218607
*CONN
*P io_in[26] I
*I *804:io_in[26] I *D picorv32_soc
*CAP
1 io_in[26] 0.0059831
2 *804:io_in[26] 0.00782764
3 *48:15 0.103321
4 *48:13 0.101476
*RES
1 io_in[26] *48:13 15.0223 
2 *48:13 *48:15 260.075 
3 *48:15 *804:io_in[26] 19.1643 
*END

*D_NET *49 0.197578
*CONN
*P io_in[27] I
*I *804:io_in[27] I *D picorv32_soc
*CAP
1 io_in[27] 0.00799211
2 *804:io_in[27] 0.00530295
3 *49:15 0.0901355
4 *49:13 0.0928247
5 *49:15 *85:9 0
6 *49:15 *91:9 0
7 *49:15 *766:27 0.00132302
*RES
1 io_in[27] *49:13 21.0821 
2 *49:13 *49:15 232.253 
3 *49:15 *804:io_in[27] 13.1046 
*END

*D_NET *50 0.17605
*CONN
*P io_in[28] I
*I *804:io_in[28] I *D picorv32_soc
*CAP
1 io_in[28] 0.00387814
2 *804:io_in[28] 0.00906843
3 *50:11 0.084147
4 *50:9 0.0789567
5 *50:11 *54:11 0
6 *50:11 *124:9 0
*RES
1 io_in[28] *50:9 10.4319 
2 *50:9 *50:11 204.26 
3 *50:11 *804:io_in[28] 23.5926 
*END

*D_NET *51 0.155663
*CONN
*P io_in[29] I
*I *804:io_in[29] I *D picorv32_soc
*CAP
1 io_in[29] 0.00288608
2 *804:io_in[29] 0.0100405
3 *51:11 0.0749455
4 *51:9 0.0677911
*RES
1 io_in[29] *51:9 7.8682 
2 *51:9 *51:11 176.439 
3 *51:11 *804:io_in[29] 26.1563 
*END

*D_NET *52 0.413076
*CONN
*P io_in[2] I
*I *804:io_in[2] I *D picorv32_soc
*CAP
1 io_in[2] 0.00211728
2 *804:io_in[2] 0.0152968
3 *52:21 0.0379362
4 *52:19 0.0247567
5 *804:io_in[2] *803:cpu_mem_wdata[21] 0.00162722
6 *804:io_in[2] *90:11 0.00651683
7 *804:io_in[2] *681:13 0.00101427
8 *804:io_in[2] *683:15 0.00101427
9 *52:19 io_oeb[2] 0.000916858
10 *52:19 io_oeb[3] 0.00178735
11 *52:19 *62:13 0.00037414
12 *52:19 *62:29 0.00219847
13 *52:19 *63:9 0.000818662
14 *52:19 *100:23 0.000742421
15 *52:19 *138:25 0.000794541
16 *52:19 *139:33 0.000570574
17 *52:21 *63:13 0.155462
18 *52:21 *90:13 0.155313
19 *52:21 *651:16 0.00381827
*RES
1 io_in[2] *52:19 10.7749 
2 *52:19 *52:21 230.075 
3 *52:21 *804:io_in[2] 43.7335 
*END

*D_NET *53 0.1361
*CONN
*P io_in[30] I
*I *804:io_in[30] I *D picorv32_soc
*CAP
1 io_in[30] 0.00641179
2 *804:io_in[30] 0.00696937
3 *53:15 0.0616382
4 *53:13 0.0610807
5 *53:15 *86:9 0
*RES
1 io_in[30] *53:13 16.7703 
2 *53:13 *53:15 148.618 
3 *53:15 *804:io_in[30] 17.4163 
*END

*D_NET *54 0.14248
*CONN
*P io_in[31] I
*I *804:io_in[31] I *D picorv32_soc
*CAP
1 io_in[31] 0.00366809
2 *804:io_in[31] 0.00919274
3 *54:11 0.0411329
4 *54:9 0.0356082
5 *54:11 *124:9 0.052878
6 *50:11 *54:11 0
*RES
1 io_in[31] *54:9 9.73273 
2 *54:9 *54:11 120.711 
3 *54:11 *804:io_in[31] 24.2918 
*END

*D_NET *55 0.111943
*CONN
*P io_in[32] I
*I *804:io_in[32] I *D picorv32_soc
*CAP
1 io_in[32] 0.00502292
2 *804:io_in[32] 0.0081807
3 *55:15 0.0349241
4 *55:13 0.0317663
5 *55:15 *123:9 0.0320495
*RES
1 io_in[32] *55:13 12.4586 
2 *55:13 *55:15 92.9759 
3 *55:15 *804:io_in[32] 21.7281 
*END

*D_NET *56 0.0801011
*CONN
*P io_in[33] I
*I *804:io_in[33] I *D picorv32_soc
*CAP
1 io_in[33] 0.00757759
2 *804:io_in[33] 0.00544875
3 *56:15 0.0269427
4 *56:13 0.0290715
5 *56:15 *91:9 0
6 *56:15 *122:9 0.0110605
7 *56:15 *766:27 0
*RES
1 io_in[33] *56:13 19.4506 
2 *56:13 *56:15 65.0687 
3 *56:15 *804:io_in[33] 14.7361 
*END

*D_NET *57 0.052952
*CONN
*P io_in[34] I
*I *804:io_in[34] I *D picorv32_soc
*CAP
1 io_in[34] 0.0146087
2 *804:io_in[34] 0.0118672
3 *57:13 0.026476
*RES
1 io_in[34] *57:13 40.4579 
2 *57:13 *804:io_in[34] 30.9003 
*END

*D_NET *58 0.0321834
*CONN
*P io_in[35] I
*I *804:io_in[35] I *D picorv32_soc
*CAP
1 io_in[35] 0.0160917
2 *804:io_in[35] 0.0160917
3 *804:io_in[35] *132:7 0
*RES
1 io_in[35] *804:io_in[35] 43.2788 
*END

*D_NET *59 0.0330128
*CONN
*P io_in[36] I
*I *804:io_in[36] I *D picorv32_soc
*CAP
1 io_in[36] 0.0165064
2 *804:io_in[36] 0.0165064
*RES
1 io_in[36] *804:io_in[36] 44.2263 
*END

*D_NET *60 0.047345
*CONN
*P io_in[37] I
*I *804:io_in[37] I *D picorv32_soc
*CAP
1 io_in[37] 0.0138399
2 *804:io_in[37] 0.00983257
3 *60:13 0.0236725
*RES
1 io_in[37] *60:13 38.3806 
2 *60:13 *804:io_in[37] 25.6563 
*END

*D_NET *61 0.31812
*CONN
*P io_in[3] I
*I *804:io_in[3] I *D picorv32_soc
*CAP
1 io_in[3] 0.0310233
2 *804:io_in[3] 0.00275363
3 *61:17 0.00518867
4 *61:15 0.00243505
5 *61:13 0.0482474
6 *61:11 0.0482474
7 *61:9 0.0070979
8 *61:7 0.0070979
9 *61:5 0.0310233
10 *804:io_in[3] *731:23 0.000788327
11 *804:io_in[3] *732:13 0.000705002
12 *804:io_in[3] *737:28 0.000796841
13 *804:io_in[3] *739:15 0.000741497
14 *804:io_in[3] *763:25 0.000712616
15 *804:io_in[3] *764:13 0
16 *61:9 *679:23 0.0183354
17 *61:13 *63:13 0.0001053
18 *61:13 *79:10 0
19 *61:13 *90:13 0.00115774
20 *61:13 *128:21 0.102172
21 *61:13 *137:15 0
22 *61:13 *540:44 0
23 *61:13 *651:16 0.00381827
24 *61:13 *653:19 0
25 *61:13 *654:11 0
26 *61:13 *689:11 0
27 *61:13 *690:11 0
28 *61:13 *691:11 0
29 *61:17 *137:11 0.00552244
30 *61:17 *738:23 0.00014923
31 *61:17 *761:21 0
*RES
1 io_in[3] *61:5 76.3192 
2 *61:5 *61:7 0.5 
3 *61:7 *61:9 205.635 
4 *61:9 *61:11 0.5 
5 *61:11 *61:13 184.161 
6 *61:13 *61:15 0.5 
7 *61:15 *61:17 66.915 
8 *61:17 *804:io_in[3] 7.95873 
*END

*D_NET *62 0.364305
*CONN
*P io_in[4] I
*I *804:io_in[4] I *D picorv32_soc
*CAP
1 io_in[4] 0.000263195
2 *804:io_in[4] 0.00866655
3 *62:29 0.101579
4 *62:13 0.110406
5 *62:11 0.0177563
6 *804:io_in[4] *106:11 0.000119289
7 *62:13 io_oeb[3] 0.00298597
8 *62:29 *99:21 0.119692
9 *62:29 *100:21 0
10 *62:29 *138:25 0.000263245
11 *52:19 *62:13 0.00037414
12 *52:19 *62:29 0.00219847
*RES
1 io_in[4] *62:11 1.14727 
2 *62:11 *62:13 51.6775 
3 *62:13 *62:29 33.4841 
4 *62:29 *804:io_in[4] 23.1695 
*END

*D_NET *63 0.462124
*CONN
*P io_in[5] I
*I *804:io_in[5] I *D picorv32_soc
*CAP
1 io_in[5] 2.54613e-05
2 *804:io_in[5] 0.0125874
3 *63:17 0.014887
4 *63:15 0.00229959
5 *63:13 0.0364769
6 *63:11 0.0364769
7 *63:9 0.00956541
8 *63:7 0.00959087
9 *804:io_in[5] *100:17 3.7631e-05
10 *804:io_in[5] *138:7 0
11 *804:io_in[5] *139:15 0.001386
12 *804:io_in[5] *750:15 0.000327511
13 *804:io_in[5] *751:15 0.000570528
14 *63:9 io_oeb[3] 0.00495206
15 *63:9 *138:29 0.0337388
16 *63:9 *139:33 0.044865
17 *63:13 io_oeb[1] 0
18 *63:13 *802:Di0[0] 0.000399925
19 *63:13 *90:13 4.11745e-05
20 *63:13 *137:15 0.0606381
21 *63:13 *138:25 0.0145497
22 *63:17 *100:17 0.00248011
23 *63:17 *138:25 0.000204634
24 *63:17 *139:17 0.0124184
25 *63:17 *748:15 0.00721902
26 *52:19 *63:9 0.000818662
27 *52:21 *63:13 0.155462
28 *61:13 *63:13 0.0001053
*RES
1 io_in[5] *63:7 0.548133 
2 *63:7 *63:9 502.455 
3 *63:9 *63:11 0.5 
4 *63:11 *63:13 230.774 
5 *63:13 *63:15 0.5 
6 *63:15 *63:17 139.335 
7 *63:17 *804:io_in[5] 34.0128 
*END

*D_NET *64 0.292956
*CONN
*P io_in[6] I
*I *804:io_in[6] I *D picorv32_soc
*CAP
1 io_in[6] 0.00414809
2 *804:io_in[6] 0.0130278
3 *64:17 0.0394364
4 *64:15 0.0264085
5 *64:13 0.0674946
6 *64:11 0.0716427
7 *64:11 io_oeb[5] 0.00377465
8 *64:11 io_out[6] 0.00261068
9 *64:13 *802:A0[0] 0.0130866
10 *64:13 *802:A0[1] 9.4675e-06
11 *64:13 *140:13 0.0302297
12 *64:17 *685:14 0.0210872
*RES
1 io_in[6] *64:11 18.1722 
2 *64:11 *64:13 227.511 
3 *64:13 *64:15 0.5 
4 *64:15 *64:17 96.3351 
5 *64:17 *804:io_in[6] 33.4979 
*END

*D_NET *65 0.32106
*CONN
*P io_in[7] I
*I *804:io_in[7] I *D picorv32_soc
*CAP
1 io_in[7] 0.10174
2 *804:io_in[7] 0.00383951
3 *65:9 0.0308872
4 *65:7 0.0270477
5 *65:5 0.10174
6 *65:9 *109:9 0
7 *65:9 *142:9 0.0558051
*RES
1 io_in[7] *65:5 251.148 
2 *65:5 *65:7 0.5 
3 *65:7 *65:9 108.48 
4 *65:9 *804:io_in[7] 10.0747 
*END

*D_NET *66 0.302932
*CONN
*P io_in[8] I
*I *804:io_in[8] I *D picorv32_soc
*CAP
1 io_in[8] 0.0926495
2 *804:io_in[8] 0.00655885
3 *66:9 0.0588165
4 *66:7 0.0522576
5 *66:5 0.0926495
6 *66:9 *105:9 0
*RES
1 io_in[8] *66:5 244.273 
2 *66:5 *66:7 0.5 
3 *66:7 *66:9 137.507 
4 *66:9 *804:io_in[8] 16.9502 
*END

*D_NET *67 0.369778
*CONN
*P io_in[9] I
*I *804:io_in[9] I *D picorv32_soc
*CAP
1 io_in[9] 0.0986424
2 *804:io_in[9] 0.000503663
3 *67:9 0.0382885
4 *67:7 0.0377848
5 *67:5 0.0986424
6 *67:9 *69:9 0.0867167
7 *67:9 *143:9 0
8 *67:9 *730:14 0.000542367
9 *67:9 *760:21 0.000869618
10 *67:9 *762:13 0.00093447
11 *67:9 *769:15 0.00685331
*RES
1 io_in[9] *67:5 259.772 
2 *67:5 *67:7 0.5 
3 *67:7 *67:9 166.448 
4 *67:9 *804:io_in[9] 1.45127 
*END

*D_NET *68 0.261406
*CONN
*P io_oeb[0] O
*I *804:io_oeb[0] O *D picorv32_soc
*CAP
1 io_oeb[0] 0.00398208
2 *804:io_oeb[0] 0.00528161
3 *68:13 0.0940192
4 *68:11 0.0953187
5 io_oeb[0] io_out[0] 0.00883377
6 *68:11 *728:15 0.000744315
7 *68:11 *729:15 0.000665642
8 *68:11 *730:14 0.00238281
9 *68:11 *735:30 0.000757115
10 *68:11 *736:26 0.000544964
11 *68:11 *760:21 0.000665642
12 *68:11 *762:13 0.000752846
13 *68:11 *769:15 0
14 *68:13 io_out[1] 0
15 *68:13 *713:9 0.0474578
16 *68:13 *716:11 0
*RES
1 *804:io_oeb[0] *68:11 15.9682 
2 *68:11 *68:13 259.791 
3 *68:13 io_oeb[0] 17.397 
*END

*D_NET *69 0.458092
*CONN
*P io_oeb[10] O
*I *804:io_oeb[10] O *D picorv32_soc
*CAP
1 io_oeb[10] 0.098603
2 *804:io_oeb[10] 0.000468334
3 *69:11 0.098603
4 *69:9 0.0296379
5 *69:7 0.0301063
6 *69:9 *70:9 0.111826
7 *69:9 *143:9 0
8 *69:9 *730:14 0.000987095
9 *69:9 *760:21 0.000602531
10 *69:9 *762:13 0.000541812
11 *67:9 *69:9 0.0867167
*RES
1 *804:io_oeb[10] *69:7 1.33473 
2 *69:7 *69:9 209.17 
3 *69:9 *69:11 0.5 
4 *69:11 io_oeb[10] 259.888 
*END

*D_NET *70 0.447488
*CONN
*P io_oeb[11] O
*I *804:io_oeb[11] O *D picorv32_soc
*CAP
1 io_oeb[11] 0.0986036
2 *804:io_oeb[11] 0.000409434
3 *70:11 0.0986036
4 *70:9 0.0618733
5 *70:7 0.0622827
6 *70:9 *728:15 0.00217385
7 *70:9 *729:15 0.00194408
8 *70:9 *730:14 0.00559779
9 *70:9 *760:21 0.00194408
10 *70:9 *762:13 0.00222963
11 *69:9 *70:9 0.111826
*RES
1 *804:io_oeb[11] *70:7 1.2182 
2 *70:7 *70:9 238.197 
3 *70:9 *70:11 0.5 
4 *70:11 io_oeb[11] 260.005 
*END

*D_NET *71 0.396883
*CONN
*P io_oeb[12] O
*I *804:io_oeb[12] O *D picorv32_soc
*CAP
1 io_oeb[12] 0.0892395
2 *804:io_oeb[12] 0.0106998
3 *71:11 0.0892395
4 *71:9 0.0985024
5 *71:7 0.109202
6 *71:9 *103:9 0
7 *71:9 *107:9 0
*RES
1 *804:io_oeb[12] *71:7 25.6902 
2 *71:7 *71:9 267.224 
3 *71:9 *71:11 0.5 
4 *71:11 io_oeb[12] 235.533 
*END

*D_NET *72 0.416376
*CONN
*P io_oeb[13] O
*I *804:io_oeb[13] O *D picorv32_soc
*CAP
1 io_oeb[13] 0.0959308
2 *804:io_oeb[13] 0.00321814
3 *72:11 0.0959308
4 *72:9 0.109039
5 *72:7 0.112257
*RES
1 *804:io_oeb[13] *72:7 8.2102 
2 *72:7 *72:9 296.164 
3 *72:9 *72:11 0.5 
4 *72:11 io_oeb[13] 253.013 
*END

*D_NET *73 0.438806
*CONN
*P io_oeb[14] O
*I *804:io_oeb[14] O *D picorv32_soc
*CAP
1 io_oeb[14] 0.0978156
2 *804:io_oeb[14] 0.00123548
3 *73:11 0.0978156
4 *73:9 0.11963
5 *73:7 0.120866
6 *73:9 *143:9 0
7 *73:9 *740:10 0
8 *73:9 *768:15 0.000528407
9 *73:9 *786:18 0.000508929
10 *73:9 *801:18 0.000406788
11 *34:9 *73:9 0
*RES
1 *804:io_oeb[14] *73:7 2.9662 
2 *73:7 *73:9 325.191 
3 *73:9 *73:11 0.5 
4 *73:11 io_oeb[14] 258.257 
*END

*D_NET *74 0.429579
*CONN
*P io_oeb[15] O
*I *804:io_oeb[15] O *D picorv32_soc
*CAP
1 io_oeb[15] 0.000266416
2 *804:io_oeb[15] 0.0193414
3 *74:13 0.0866396
4 *74:11 0.0863732
5 *74:9 0.108808
6 *74:7 0.108808
7 *74:5 0.0193414
8 *74:9 *75:9 0
9 *42:9 *74:9 0
*RES
1 *804:io_oeb[15] *74:5 350.932 
2 *74:5 *74:7 0.5 
3 *74:7 *74:9 282.573 
4 *74:9 *74:11 0.5 
5 *74:11 *74:13 1571.08 
6 *74:13 io_oeb[15] 4.9125 
*END

*D_NET *75 0.399274
*CONN
*P io_oeb[16] O
*I *804:io_oeb[16] O *D picorv32_soc
*CAP
1 io_oeb[16] 0.0863397
2 *804:io_oeb[16] 0.0203922
3 *75:11 0.0863397
4 *75:9 0.092905
5 *75:7 0.092905
6 *75:5 0.0203922
7 *74:9 *75:9 0
*RES
1 *804:io_oeb[16] *75:5 356.033 
2 *75:5 *75:7 0.5 
3 *75:7 *75:9 243.651 
4 *75:9 *75:11 0.5 
5 *75:11 io_oeb[16] 1570.34 
*END

*D_NET *76 0.369487
*CONN
*P io_oeb[17] O
*I *804:io_oeb[17] O *D picorv32_soc
*CAP
1 io_oeb[17] 0.000279716
2 *804:io_oeb[17] 0.0207069
3 *76:13 0.086063
4 *76:11 0.0857832
5 *76:9 0.0779736
6 *76:7 0.0779736
7 *76:5 0.0207069
8 *76:9 *78:9 0
*RES
1 *804:io_oeb[17] *76:5 361.642 
2 *76:5 *76:7 0.5 
3 *76:7 *76:9 204.612 
4 *76:9 *76:11 0.5 
5 *76:11 *76:13 1560.38 
6 *76:13 io_oeb[17] 4.9125 
*END

*D_NET *77 0.338448
*CONN
*P io_oeb[18] O
*I *804:io_oeb[18] O *D picorv32_soc
*CAP
1 io_oeb[18] 0.0854825
2 *804:io_oeb[18] 0.0204799
3 *77:11 0.0854825
4 *77:9 0.0632615
5 *77:7 0.0632615
6 *77:5 0.0204799
7 *77:9 *78:9 0
*RES
1 *804:io_oeb[18] *77:5 371.842 
2 *77:5 *77:7 0.5 
3 *77:7 *77:9 165.632 
4 *77:9 *77:11 0.5 
5 *77:11 io_oeb[18] 1554.53 
*END

*D_NET *78 0.308935
*CONN
*P io_oeb[19] O
*I *804:io_oeb[19] O *D picorv32_soc
*CAP
1 io_oeb[19] 0.0857767
2 *804:io_oeb[19] 0.020186
3 *78:11 0.0857767
4 *78:9 0.0485048
5 *78:7 0.0485048
6 *78:5 0.020186
7 *76:9 *78:9 0
8 *77:9 *78:9 0
*RES
1 *804:io_oeb[19] *78:5 366.742 
2 *78:5 *78:7 0.5 
3 *78:7 *78:9 126.651 
4 *78:9 *78:11 0.5 
5 *78:11 io_oeb[19] 1559.63 
*END

*D_NET *79 0.306256
*CONN
*P io_oeb[1] O
*I *804:io_oeb[1] O *D picorv32_soc
*CAP
1 io_oeb[1] 0.0304645
2 *804:io_oeb[1] 0.00454145
3 *79:32 0.03168
4 *79:18 0.0148684
5 *79:16 0.0137955
6 *79:10 0.0288535
7 *79:8 0.0332523
8 io_oeb[1] *137:15 0
9 io_oeb[1] *138:25 0.00723041
10 *79:8 *731:23 0.00155633
11 *79:8 *732:13 0.00139182
12 *79:8 *737:28 0.00155633
13 *79:8 *739:15 0.00144823
14 *79:8 *763:25 0.00139182
15 *79:8 *764:13 0
16 *79:10 *139:21 0.0710968
17 *79:10 *139:29 0.00220502
18 *79:10 *540:44 0.0459731
19 *79:10 *651:16 0.00131318
20 *79:10 *653:15 0.00139977
21 *79:10 *654:11 0.000179357
22 *79:10 *731:29 2.7693e-05
23 *79:10 *763:23 6.07809e-06
24 *79:10 *794:19 0.000295285
25 *79:18 *139:29 0
26 *79:18 *646:17 0
27 *79:18 *647:17 0
28 *79:18 *648:17 0
29 *79:18 *649:19 0
30 *79:18 *652:9 0.0116161
31 *79:32 *802:Di0[2] 0
32 *79:32 *651:18 0
33 *79:32 *652:9 4.49232e-05
34 *79:32 *654:11 3.92756e-05
35 *79:32 *662:15 1.79536e-05
36 *79:32 *695:5 1.03833e-05
37 *61:13 *79:10 0
38 *63:13 io_oeb[1] 0
*RES
1 *804:io_oeb[1] *79:8 12.4937 
2 *79:8 *79:10 142.296 
3 *79:10 *79:16 4.7725 
4 *79:16 *79:18 233.325 
5 *79:18 *79:32 5.90483 
6 *79:32 io_oeb[1] 79.3782 
*END

*D_NET *80 0.296971
*CONN
*P io_oeb[20] O
*I *804:io_oeb[20] O *D picorv32_soc
*CAP
1 io_oeb[20] 0.104982
2 *804:io_oeb[20] 0.000944106
3 *80:19 0.104982
4 *80:17 0.0145077
5 *80:15 0.0272726
6 *80:7 0.0137091
7 *80:15 *778:9 0.0107209
8 *80:15 *780:9 0.00101798
9 *80:15 *781:9 0.000313632
10 *80:15 *783:9 0.000431206
11 *80:15 *790:9 0.00555619
12 *80:15 *800:9 0
13 *80:17 *790:9 0.0125338
*RES
1 *804:io_oeb[20] *80:7 16.3625 
2 *80:7 *80:15 48.3864 
3 *80:15 *80:17 256.44 
4 *80:17 *80:19 2 
5 *80:19 io_oeb[20] 1909.11 
*END

*D_NET *81 0.286655
*CONN
*P io_oeb[21] O
*I *804:io_oeb[21] O *D picorv32_soc
*CAP
1 io_oeb[21] 0.000207535
2 *804:io_oeb[21] 0.105584
3 *81:11 0.00677909
4 *81:5 0.112155
5 *81:11 io_oeb[22] 0
6 *81:11 io_out[15] 0.00436476
7 *81:11 io_out[22] 0
8 *81:11 *113:9 0.0252395
9 *81:11 *119:9 0.0323247
*RES
1 *804:io_oeb[21] *81:5 1923.26 
2 *81:5 *81:11 49.6324 
3 *81:11 io_oeb[21] 3.1125 
*END

*D_NET *82 0.219089
*CONN
*P io_oeb[22] O
*I *804:io_oeb[22] O *D picorv32_soc
*CAP
1 io_oeb[22] 0.00301856
2 *804:io_oeb[22] 0.105736
3 *82:5 0.108754
4 io_oeb[22] *115:9 0.000176658
5 io_oeb[22] *116:9 0.000624218
6 io_oeb[22] *118:9 0.000472201
7 io_oeb[22] *119:9 0.000307702
8 *81:11 io_oeb[22] 0
*RES
1 *804:io_oeb[22] *82:5 1926.32 
2 *82:5 io_oeb[22] 12.508 
*END

*D_NET *83 0.245166
*CONN
*P io_oeb[23] O
*I *804:io_oeb[23] O *D picorv32_soc
*CAP
1 io_oeb[23] 0.105918
2 *804:io_oeb[23] 0.0101228
3 *83:8 0.116041
4 io_oeb[23] *93:9 0.00548991
5 *83:8 *129:25 0
6 *83:8 *726:25 0.00148889
7 *83:8 *727:16 0.000142537
8 *83:8 *791:9 9.09423e-06
9 *83:8 *798:19 3.93771e-05
10 *804:io_in[23] *83:8 0.00591462
*RES
1 *804:io_oeb[23] *83:8 30.4044 
2 *83:8 io_oeb[23] 1927.34 
*END

*D_NET *84 0.247824
*CONN
*P io_oeb[24] O
*I *804:io_oeb[24] O *D picorv32_soc
*CAP
1 io_oeb[24] 0.0104941
2 *804:io_oeb[24] 0.00232622
3 *84:9 0.121586
4 *84:7 0.113418
*RES
1 *804:io_oeb[24] *84:7 6.1126 
2 *84:7 *84:9 302.711 
3 *84:9 io_oeb[24] 28.0741 
*END

*D_NET *85 0.228072
*CONN
*P io_oeb[25] O
*I *804:io_oeb[25] O *D picorv32_soc
*CAP
1 io_oeb[25] 0.00825656
2 *804:io_oeb[25] 0.0046947
3 *85:9 0.109341
4 *85:7 0.10578
5 *85:9 *125:9 0
6 *49:15 *85:9 0
*RES
1 *804:io_oeb[25] *85:7 12.1723 
2 *85:7 *85:9 274.889 
3 *85:9 io_oeb[25] 22.0143 
*END

*D_NET *86 0.208362
*CONN
*P io_oeb[26] O
*I *804:io_oeb[26] O *D picorv32_soc
*CAP
1 io_oeb[26] 0.00705251
2 *804:io_oeb[26] 0.0063955
3 *86:9 0.0977855
4 *86:7 0.0971285
5 *53:15 *86:9 0
*RES
1 *804:io_oeb[26] *86:7 16.6006 
2 *86:7 *86:9 246.982 
3 *86:9 io_oeb[26] 17.5861 
*END

*D_NET *87 0.187149
*CONN
*P io_oeb[27] O
*I *804:io_oeb[27] O *D picorv32_soc
*CAP
1 io_oeb[27] 0.00967292
2 *804:io_oeb[27] 0.00331828
3 *87:9 0.0902563
4 *87:7 0.0839016
5 *87:9 *94:9 0
*RES
1 *804:io_oeb[27] *87:7 8.67633 
2 *87:7 *87:9 219.161 
3 *87:9 io_oeb[27] 25.5103 
*END

*D_NET *88 0.166605
*CONN
*P io_oeb[28] O
*I *804:io_oeb[28] O *D picorv32_soc
*CAP
1 io_oeb[28] 0.00935024
2 *804:io_oeb[28] 0.00400651
3 *88:9 0.079296
4 *88:7 0.0739522
5 io_oeb[28] io_out[28] 0
6 *88:9 *92:9 0
7 *88:9 *125:9 0
*RES
1 *804:io_oeb[28] *88:7 10.4243 
2 *88:7 *88:9 190.134 
3 *88:9 io_oeb[28] 25.6718 
*END

*D_NET *89 0.146037
*CONN
*P io_oeb[29] O
*I *804:io_oeb[29] O *D picorv32_soc
*CAP
1 io_oeb[29] 0.0117419
2 *804:io_oeb[29] 0.00124653
3 *89:9 0.0717719
4 *89:7 0.0612765
*RES
1 *804:io_oeb[29] *89:7 3.43233 
2 *89:7 *89:9 163.347 
3 *89:9 io_oeb[29] 30.5922 
*END

*D_NET *90 0.425722
*CONN
*P io_oeb[2] O
*I *804:io_oeb[2] O *D picorv32_soc
*CAP
1 io_oeb[2] 0.00495837
2 *804:io_oeb[2] 0.0159996
3 *90:13 0.0276467
4 *90:11 0.038688
5 io_oeb[2] io_oeb[3] 0.00964586
6 io_oeb[2] io_out[2] 0.00636844
7 *90:11 *803:cpu_mem_wdata[21] 0.000358094
8 *90:11 *100:17 0.000818329
9 *90:11 *138:25 0
10 *90:11 *681:13 0.000257753
11 *90:13 *128:21 0.153216
12 *90:13 *651:16 0.00381827
13 *804:io_in[2] *90:11 0.00651683
14 *52:19 io_oeb[2] 0.000916858
15 *52:21 *90:13 0.155313
16 *61:13 *90:13 0.00115774
17 *63:13 *90:13 4.11745e-05
*RES
1 *804:io_oeb[2] *90:11 46.8039 
2 *90:11 *90:13 229.958 
3 *90:13 io_oeb[2] 27.9002 
*END

*D_NET *91 0.126966
*CONN
*P io_oeb[30] O
*I *804:io_oeb[30] O *D picorv32_soc
*CAP
1 io_oeb[30] 0.00778145
2 *804:io_oeb[30] 0.00520391
3 *91:9 0.0541199
4 *91:7 0.0515424
5 *91:9 *122:9 0
6 *91:9 *766:27 0.00831832
7 *49:15 *91:9 0
8 *56:15 *91:9 0
*RES
1 *804:io_oeb[30] *91:7 13.9203 
2 *91:7 *91:9 135.612 
3 *91:9 io_oeb[30] 20.2663 
*END

*D_NET *92 0.130157
*CONN
*P io_oeb[31] O
*I *804:io_oeb[31] O *D picorv32_soc
*CAP
1 io_oeb[31] 0.00883402
2 *804:io_oeb[31] 0.00423131
3 *92:9 0.0375213
4 *92:7 0.0329186
5 *92:9 *125:9 0.0466517
6 *88:9 *92:9 0
*RES
1 *804:io_oeb[31] *92:7 11.2401 
2 *92:7 *92:9 107.705 
3 *92:9 io_oeb[31] 22.9466 
*END

*D_NET *93 0.0917221
*CONN
*P io_oeb[32] O
*I *804:io_oeb[32] O *D picorv32_soc
*CAP
1 io_oeb[32] 0.00199423
2 *804:io_oeb[32] 0.0115908
3 *93:9 0.031408
4 *93:7 0.0410045
5 io_oeb[32] *129:27 0.000234659
6 io_oeb[23] *93:9 0.00548991
*RES
1 *804:io_oeb[32] *93:7 28.8366 
2 *93:7 *93:9 79.5391 
3 *93:9 io_oeb[32] 5.44633 
*END

*D_NET *94 0.0662573
*CONN
*P io_oeb[33] O
*I *804:io_oeb[33] O *D picorv32_soc
*CAP
1 io_oeb[33] 0.011065
2 *804:io_oeb[33] 0.00293638
3 *94:9 0.0299262
4 *94:7 0.0217976
5 io_oeb[33] *129:25 6.58726e-05
6 io_oeb[33] *132:9 0.000466176
7 *87:9 *94:9 0
*RES
1 *804:io_oeb[33] *94:7 7.8606 
2 *94:7 *94:9 50.7705 
3 *94:9 io_oeb[33] 28.3217 
*END

*D_NET *95 0.043712
*CONN
*P io_oeb[34] O
*I *804:io_oeb[34] O *D picorv32_soc
*CAP
1 io_oeb[34] 0.0120135
2 *804:io_oeb[34] 0.00984255
3 *95:7 0.021856
*RES
1 *804:io_oeb[34] *95:7 26.1563 
2 *95:7 io_oeb[34] 32.1097 
*END

*D_NET *96 0.0279759
*CONN
*P io_oeb[35] O
*I *804:io_oeb[35] O *D picorv32_soc
*CAP
1 io_oeb[35] 0.013988
2 *804:io_oeb[35] 0.013988
*RES
1 *804:io_oeb[35] io_oeb[35] 37.6421 
*END

*D_NET *97 0.0479554
*CONN
*P io_oeb[36] O
*I *804:io_oeb[36] O *D picorv32_soc
*CAP
1 io_oeb[36] 0.00564881
2 *804:io_oeb[36] 0.0144457
3 *97:12 0.0200945
4 *97:12 *727:18 0.00443616
5 *97:12 *756:18 0.000918296
6 *97:12 *788:25 0.00241199
*RES
1 *804:io_oeb[36] *97:12 43.1379 
2 *97:12 io_oeb[36] 15.4099 
*END

*D_NET *98 0.0653761
*CONN
*P io_oeb[37] O
*I *804:io_oeb[37] O *D picorv32_soc
*CAP
1 io_oeb[37] 0.010454
2 *804:io_oeb[37] 0.0127471
3 *98:7 0.0232011
4 io_oeb[37] io_out[37] 0.0189738
*RES
1 *804:io_oeb[37] *98:7 33.4979 
2 *98:7 io_oeb[37] 43.4514 
*END

*D_NET *99 0.406575
*CONN
*P io_oeb[3] O
*I *804:io_oeb[3] O *D picorv32_soc
*CAP
1 io_oeb[3] 0.0130058
2 *804:io_oeb[3] 0.00934598
3 *99:21 0.0649121
4 *99:11 0.0612523
5 io_oeb[3] *138:29 0.0106427
6 *99:21 *100:17 0.107905
7 *99:21 *100:21 0.000447528
8 io_oeb[2] io_oeb[3] 0.00964586
9 *52:19 io_oeb[3] 0.00178735
10 *62:13 io_oeb[3] 0.00298597
11 *62:29 *99:21 0.119692
12 *63:9 io_oeb[3] 0.00495206
*RES
1 *804:io_oeb[3] *99:11 24.6255 
2 *99:11 *99:21 28.6591 
3 *99:21 io_oeb[3] 48.5941 
*END

*D_NET *100 0.378653
*CONN
*P io_oeb[4] O
*I *804:io_oeb[4] O *D picorv32_soc
*CAP
1 io_oeb[4] 0.000166958
2 *804:io_oeb[4] 0.0118372
3 *100:23 0.0150979
4 *100:21 0.0165972
5 *100:17 0.0807764
6 *100:7 0.0909473
7 *100:7 *139:15 0
8 *100:17 *138:25 0.00625473
9 *100:17 *139:15 0.00026748
10 *100:17 *139:17 0.00250124
11 *100:17 *682:10 0.00291174
12 *100:23 *139:33 0.0388635
13 *804:io_in[5] *100:17 3.7631e-05
14 *52:19 *100:23 0.000742421
15 *62:29 *100:21 0
16 *63:17 *100:17 0.00248011
17 *90:11 *100:17 0.000818329
18 *99:21 *100:17 0.107905
19 *99:21 *100:21 0.000447528
*RES
1 *804:io_oeb[4] *100:7 30.4681 
2 *100:7 *100:17 45.7278 
3 *100:17 *100:21 4.8206 
4 *100:21 *100:23 434.625 
5 *100:23 io_oeb[4] 1.0016 
*END

*D_NET *101 0.340699
*CONN
*P io_oeb[5] O
*I *804:io_oeb[5] O *D picorv32_soc
*CAP
1 io_oeb[5] 0.0969383
2 *804:io_oeb[5] 0.0123741
3 *101:9 0.137473
4 *101:7 0.0529092
5 *101:9 *102:9 0
6 *101:9 *111:9 0
7 *101:9 *682:10 0.0079055
8 *101:9 *748:15 0.00558721
9 *101:9 *749:15 0.00580356
10 *101:9 *750:15 0.00644018
11 *101:9 *751:15 0.0114931
12 *64:11 io_oeb[5] 0.00377465
*RES
1 *804:io_oeb[5] *101:7 30.1185 
2 *101:7 *101:9 92.8036 
3 *101:9 io_oeb[5] 45.3475 
*END

*D_NET *102 0.352116
*CONN
*P io_oeb[6] O
*I *804:io_oeb[6] O *D picorv32_soc
*CAP
1 io_oeb[6] 0.000418509
2 *804:io_oeb[6] 0.0120979
3 *102:29 0.0344856
4 *102:27 0.0342345
5 *102:21 0.0245298
6 *102:19 0.0273193
7 *102:9 0.0313367
8 *102:7 0.0404777
9 io_oeb[6] *140:13 2.35843e-05
10 *102:9 *803:cpu_mem_wdata[21] 0.00532549
11 *102:9 *111:9 0.0183812
12 *102:9 *681:13 0.0170676
13 *102:9 *683:15 0.00800333
14 *102:19 *140:13 0.00106645
15 *102:19 *656:8 0.000558736
16 *102:19 *667:8 0.000192431
17 *102:19 *682:8 0.000223176
18 *102:19 *685:12 0.000173001
19 *102:19 *686:16 0.00606411
20 *102:19 *687:16 0.00384364
21 *102:21 *657:8 0.00188252
22 *102:21 *657:10 0
23 *102:21 *660:11 0.0374154
24 *102:21 *664:6 0.00388842
25 *102:21 *674:10 0.000622253
26 *102:21 *675:12 0.000934118
27 *102:21 *676:15 0.00107114
28 *102:21 *683:13 0.00414481
29 *102:21 *684:8 0.000682072
30 *102:21 *685:12 0.000429428
31 *102:21 *686:16 0.000405192
32 *102:21 *687:16 0
33 *102:29 *802:A0[7] 0.000487
34 *102:29 *649:25 0.00148382
35 *102:29 *657:10 0.00531602
36 *102:29 *657:24 0.000376205
37 *102:29 *664:6 0.000611364
38 *102:29 *664:26 0.00184543
39 *102:29 *674:16 8.9336e-05
40 *102:29 *675:14 0.0065353
41 *102:29 *676:17 0.0042336
42 *102:29 *679:11 0.00764956
43 *102:29 *679:17 0.00394927
44 *102:29 *679:19 0.00224084
45 *101:9 *102:9 0
*RES
1 *804:io_oeb[6] *102:7 31.1673 
2 *102:7 *102:9 94.0095 
3 *102:9 *102:19 16.4821 
4 *102:19 *102:21 92.7694 
5 *102:21 *102:27 5.0275 
6 *102:27 *102:29 728.055 
7 *102:29 io_oeb[6] 9.01717 
*END

*D_NET *103 0.309532
*CONN
*P io_oeb[7] O
*I *804:io_oeb[7] O *D picorv32_soc
*CAP
1 io_oeb[7] 0.088955
2 *804:io_oeb[7] 0.0102209
3 *103:11 0.088955
4 *103:9 0.041589
5 *103:7 0.0518099
6 *103:9 *803:cpu_mem_wdata[20] 0.00525446
7 *103:9 *787:18 0.00847532
8 *103:9 *789:13 0.00938291
9 *103:9 *790:13 0.00488951
10 *32:9 *103:9 0
11 *71:9 *103:9 0
*RES
1 *804:io_oeb[7] *103:7 26.6225 
2 *103:7 *103:9 122.175 
3 *103:9 *103:11 0.5 
4 *103:11 io_oeb[7] 234.601 
*END

*D_NET *104 0.330932
*CONN
*P io_oeb[8] O
*I *804:io_oeb[8] O *D picorv32_soc
*CAP
1 io_oeb[8] 0.0966495
2 *804:io_oeb[8] 0.0086105
3 *104:11 0.0966495
4 *104:9 0.0558338
5 *104:7 0.0644443
6 *104:9 *803:cpu_mem_wdata[19] 0.00874492
*RES
1 *804:io_oeb[8] *104:7 22.1942 
2 *104:7 *104:9 151.202 
3 *104:9 *104:11 0.5 
4 *104:11 io_oeb[8] 239.029 
*END

*D_NET *105 0.339231
*CONN
*P io_oeb[9] O
*I *804:io_oeb[9] O *D picorv32_soc
*CAP
1 io_oeb[9] 0.0922852
2 *804:io_oeb[9] 0.0073738
3 *105:11 0.0922852
4 *105:9 0.0665333
5 *105:7 0.0739071
6 *105:9 *803:cpu_mem_wdata[18] 0.00684689
7 *66:9 *105:9 0
*RES
1 *804:io_oeb[9] *105:7 17.8825 
2 *105:7 *105:9 180.229 
3 *105:9 *105:11 0.5 
4 *105:11 io_oeb[9] 243.341 
*END

*D_NET *106 0.283838
*CONN
*P io_out[0] O
*I *804:io_out[0] O *D picorv32_soc
*CAP
1 io_out[0] 0.00481139
2 *804:io_out[0] 0.00635474
3 *106:13 0.0963865
4 *106:11 0.0979299
5 *106:13 *530:14 0
6 *106:13 *699:9 0.0573247
7 io_oeb[0] io_out[0] 0.00883377
8 *804:io_in[4] *106:11 0.000119289
9 *30:15 io_out[0] 0.0120773
*RES
1 *804:io_out[0] *106:11 17.2703 
2 *106:11 *106:13 255.246 
3 *106:13 io_out[0] 27.5303 
*END

*D_NET *107 0.362729
*CONN
*P io_out[10] O
*I *804:io_out[10] O *D picorv32_soc
*CAP
1 io_out[10] 0.0955523
2 *804:io_out[10] 0.00974177
3 *107:11 0.0955523
4 *107:9 0.0746236
5 *107:7 0.0843653
6 *107:9 *785:18 0.0028936
7 *71:9 *107:9 0
*RES
1 *804:io_out[10] *107:7 24.8745 
2 *107:7 *107:9 202.365 
3 *107:9 *107:11 0.5 
4 *107:11 io_out[10] 236.349 
*END

*D_NET *108 0.372308
*CONN
*P io_out[11] O
*I *804:io_out[11] O *D picorv32_soc
*CAP
1 io_out[11] 0.0932778
2 *804:io_out[11] 0.00593972
3 *108:11 0.0932778
4 *108:9 0.0852493
5 *108:7 0.091189
6 *108:9 *743:5 0.00337404
*RES
1 *804:io_out[11] *108:7 15.2022 
2 *108:7 *108:9 231.306 
3 *108:9 *108:11 0.5 
4 *108:11 io_out[11] 246.021 
*END

*D_NET *109 0.392639
*CONN
*P io_out[12] O
*I *804:io_out[12] O *D picorv32_soc
*CAP
1 io_out[12] 0.0949582
2 *804:io_out[12] 0.00425973
3 *109:11 0.0949582
4 *109:9 0.0958052
5 *109:7 0.100065
6 *109:9 *142:9 0
7 *109:9 *742:5 0.00259338
8 *65:9 *109:9 0
*RES
1 *804:io_out[12] *109:7 10.8905 
2 *109:7 *109:9 260.333 
3 *109:9 *109:11 0.5 
4 *109:11 io_out[12] 250.333 
*END

*D_NET *110 0.424631
*CONN
*P io_out[13] O
*I *804:io_out[13] O *D picorv32_soc
*CAP
1 io_out[13] 0.100507
2 *804:io_out[13] 0.00526204
3 *110:11 0.100507
4 *110:9 0.106546
5 *110:7 0.111808
*RES
1 *804:io_out[13] *110:7 12.6385 
2 *110:7 *110:9 289.36 
3 *110:9 *110:11 0.5 
4 *110:11 io_out[13] 248.585 
*END

*D_NET *111 0.439645
*CONN
*P io_out[14] O
*I *804:io_out[14] O *D picorv32_soc
*CAP
1 io_out[14] 0.0872948
2 *804:io_out[14] 0.0124387
3 *111:11 0.0872948
4 *111:9 0.110898
5 *111:7 0.123337
6 *101:9 *111:9 0
7 *102:9 *111:9 0.0183812
*RES
1 *804:io_out[14] *111:7 30.9342 
2 *111:7 *111:9 318.301 
3 *111:9 *111:11 0.5 
4 *111:11 io_out[14] 230.289 
*END

*D_NET *112 0.702558
*CONN
*P io_out[15] O
*I *804:io_out[15] O *D picorv32_soc
*CAP
1 io_out[15] 0.138738
2 *804:io_out[15] 1.88009e-05
3 *112:10 0.277143
4 *112:8 0.138424
5 io_out[15] io_out[22] 0.000531059
6 io_out[15] *113:9 0.0459136
7 io_out[15] *114:9 0.032225
8 io_out[15] *115:9 0.0258978
9 io_out[15] *116:9 0.0199783
10 io_out[15] *118:9 0.0130155
11 io_out[15] *119:9 0.00626493
12 *112:8 *759:17 0
13 *112:8 *799:21 4.21127e-05
14 *36:21 *112:10 0
15 *81:11 io_out[15] 0.00436476
*RES
1 *804:io_out[15] *112:8 1.06713 
2 *112:8 *112:10 325.45 
3 *112:10 io_out[15] 33.2867 
*END

*D_NET *113 0.471099
*CONN
*P io_out[16] O
*I *804:io_out[16] O *D picorv32_soc
*CAP
1 io_out[16] 0.000202149
2 *804:io_out[16] 0.105622
3 *113:9 0.078635
4 *113:7 0.0784329
5 *113:5 0.105622
6 *113:9 io_out[22] 0
7 *113:9 *114:9 0
8 *113:9 *115:9 0.00633466
9 *113:9 *116:9 0.00872088
10 *113:9 *118:9 0.011708
11 *113:9 *119:9 0.00404604
12 io_out[15] *113:9 0.0459136
13 *39:11 *113:9 0.000622404
14 *81:11 *113:9 0.0252395
*RES
1 *804:io_out[16] *113:5 1922.75 
2 *113:5 *113:7 0.5 
3 *113:7 *113:9 253.207 
4 *113:9 io_out[16] 4.1225 
*END

*D_NET *114 0.475033
*CONN
*P io_out[17] O
*I *804:io_out[17] O *D picorv32_soc
*CAP
1 io_out[17] 7.43699e-05
2 *804:io_out[17] 0.105809
3 *114:9 0.0571878
4 *114:7 0.0571134
5 *114:5 0.105809
6 *114:9 *115:9 0.116814
7 io_out[15] *114:9 0.032225
8 *113:9 *114:9 0
*RES
1 *804:io_out[17] *114:5 1925.81 
2 *114:5 *114:7 0.5 
3 *114:7 *114:9 214.11 
4 *114:9 io_out[17] 1.8575 
*END

*D_NET *115 0.492853
*CONN
*P io_out[18] O
*I *804:io_out[18] O *D picorv32_soc
*CAP
1 io_out[18] 6.9955e-05
2 *804:io_out[18] 0.105762
3 *115:9 0.0208169
4 *115:7 0.020747
5 *115:5 0.105762
6 *115:9 *116:9 0.0904724
7 io_oeb[22] *115:9 0.000176658
8 io_out[15] *115:9 0.0258978
9 *113:9 *115:9 0.00633466
10 *114:9 *115:9 0.116814
*RES
1 *804:io_out[18] *115:5 1925.3 
2 *115:5 *115:7 0.5 
3 *115:7 *115:9 175.246 
4 *115:9 io_out[18] 1.5725 
*END

*D_NET *116 0.427023
*CONN
*P io_out[19] O
*I *804:io_out[19] O *D picorv32_soc
*CAP
1 io_out[19] 0.000103832
2 *804:io_out[19] 0.105714
3 *116:9 0.0157965
4 *116:7 0.0156926
5 *116:5 0.105714
6 *116:9 *118:9 0.0642057
7 io_oeb[22] *116:9 0.000624218
8 io_out[15] *116:9 0.0199783
9 *113:9 *116:9 0.00872088
10 *115:9 *116:9 0.0904724
*RES
1 *804:io_out[19] *116:5 1924.79 
2 *116:5 *116:7 0.5 
3 *116:7 *116:9 136.207 
4 *116:9 io_out[19] 2.0825 
*END

*D_NET *117 0.218764
*CONN
*P io_out[1] O
*I *804:io_out[1] O *D picorv32_soc
*CAP
1 io_out[1] 0.0850964
2 *804:io_out[1] 0.0168954
3 *117:11 0.101992
4 io_out[1] *713:9 0
5 io_out[1] *718:11 0.0136132
6 *117:11 *787:18 0.00116741
7 *68:13 io_out[1] 0
*RES
1 *804:io_out[1] *117:11 44.5999 
2 *117:11 io_out[1] 233.785 
*END

*D_NET *118 0.36136
*CONN
*P io_out[20] O
*I *804:io_out[20] O *D picorv32_soc
*CAP
1 io_out[20] 0.0001384
2 *804:io_out[20] 0.105667
3 *118:9 0.0113618
4 *118:7 0.0112234
5 *118:5 0.105667
6 *118:9 *119:9 0.0379022
7 io_oeb[22] *118:9 0.000472201
8 io_out[15] *118:9 0.0130155
9 *113:9 *118:9 0.011708
10 *116:9 *118:9 0.0642057
*RES
1 *804:io_out[20] *118:5 1924.28 
2 *118:5 *118:7 0.5 
3 *118:7 *118:9 97.2268 
4 *118:9 io_out[20] 2.5925 
*END

*D_NET *119 0.304852
*CONN
*P io_out[21] O
*I *804:io_out[21] O *D picorv32_soc
*CAP
1 io_out[21] 0.000172967
2 *804:io_out[21] 0.105618
3 *119:9 0.00638472
4 *119:7 0.00621175
5 *119:5 0.105618
6 io_oeb[22] *119:9 0.000307702
7 io_out[15] *119:9 0.00626493
8 *81:11 *119:9 0.0323247
9 *113:9 *119:9 0.00404604
10 *118:9 *119:9 0.0379022
*RES
1 *804:io_out[21] *119:5 1923.77 
2 *119:5 *119:7 0.5 
3 *119:7 *119:9 58.2464 
4 *119:9 io_out[21] 3.1025 
*END

*D_NET *120 0.226917
*CONN
*P io_out[22] O
*I *804:io_out[22] O *D picorv32_soc
*CAP
1 io_out[22] 0.00785083
2 *804:io_out[22] 0.105342
3 *120:5 0.113193
4 io_out[15] io_out[22] 0.000531059
5 *81:11 io_out[22] 0
6 *113:9 io_out[22] 0
*RES
1 *804:io_out[22] *120:5 1919.18 
2 *120:5 io_out[22] 27.4002 
*END

*D_NET *121 0.227031
*CONN
*P io_out[23] O
*I *804:io_out[23] O *D picorv32_soc
*CAP
1 io_out[23] 0.00731929
2 *804:io_out[23] 0.000214151
3 *121:14 0.11293
4 *121:12 0.105824
5 *121:12 *725:19 0.000371747
6 *121:12 *726:25 0.000371747
*RES
1 *804:io_out[23] *121:12 4.0524 
2 *121:12 *121:14 1924.44 
3 *121:14 io_out[23] 22.122 
*END

*D_NET *122 0.259666
*CONN
*P io_out[24] O
*I *804:io_out[24] O *D picorv32_soc
*CAP
1 io_out[24] 0.00726398
2 *804:io_out[24] 0.00606336
3 *122:9 0.118239
4 *122:7 0.117039
5 *56:15 *122:9 0.0110605
6 *91:9 *122:9 0
*RES
1 *804:io_out[24] *122:7 14.8526 
2 *122:7 *122:9 309.257 
3 *122:9 io_out[24] 19.3341 
*END

*D_NET *123 0.250248
*CONN
*P io_out[25] O
*I *804:io_out[25] O *D picorv32_soc
*CAP
1 io_out[25] 0.00486953
2 *804:io_out[25] 0.00850013
3 *123:9 0.100599
4 *123:7 0.10423
5 *55:15 *123:9 0.0320495
*RES
1 *804:io_out[25] *123:7 21.8446 
2 *123:7 *123:9 281.436 
3 *123:9 io_out[25] 12.3421 
*END

*D_NET *124 0.240174
*CONN
*P io_out[26] O
*I *804:io_out[26] O *D picorv32_soc
*CAP
1 io_out[26] 0.00357431
2 *804:io_out[26] 0.00947221
3 *124:9 0.0841759
4 *124:7 0.0900738
5 *50:11 *124:9 0
6 *54:11 *124:9 0.052878
*RES
1 *804:io_out[26] *124:7 24.4083 
2 *124:7 *124:9 253.442 
3 *124:9 io_out[26] 9.6162 
*END

*D_NET *125 0.218006
*CONN
*P io_out[27] O
*I *804:io_out[27] O *D picorv32_soc
*CAP
1 io_out[27] 0.00916982
2 *804:io_out[27] 0.00462452
3 *125:9 0.0810525
4 *125:7 0.0765072
5 *85:9 *125:9 0
6 *88:9 *125:9 0
7 *92:9 *125:9 0.0466517
*RES
1 *804:io_out[27] *125:7 11.3566 
2 *125:7 *125:9 225.707 
3 *125:9 io_out[27] 22.8301 
*END

*D_NET *126 0.182521
*CONN
*P io_out[28] O
*I *804:io_out[28] O *D picorv32_soc
*CAP
1 io_out[28] 0.0157276
2 *804:io_out[28] 9.35011e-05
3 *126:19 0.0652088
4 *126:17 0.0497829
5 *126:11 0.00518651
6 *126:9 0.00497831
7 *126:11 *725:23 0
8 *126:11 *727:18 0.00285909
9 *126:11 *756:18 0.0124485
10 *126:17 *129:25 0.00010765
11 *126:17 *759:17 1.91955e-05
12 *126:19 *127:9 0.0162912
13 *126:19 *131:9 0.0027442
14 *126:19 *788:23 0.000298102
15 *126:19 *788:25 0.000305433
16 io_oeb[28] io_out[28] 0
17 *46:15 *126:19 0.00646985
*RES
1 *804:io_out[28] *126:9 0.672267 
2 *126:9 *126:11 139.845 
3 *126:11 *126:17 1.76633 
4 *126:17 *126:19 165.586 
5 *126:19 io_out[28] 42.3614 
*END

*D_NET *127 0.203741
*CONN
*P io_out[29] O
*I *804:io_out[29] O *D picorv32_soc
*CAP
1 io_out[29] 0.000137684
2 *804:io_out[29] 0.000491358
3 *127:21 0.0188186
4 *127:19 0.0320342
5 *127:9 0.0323123
6 *127:7 0.0194504
7 *127:9 *726:27 0.00234916
8 *127:9 *745:10 0.00601664
9 *127:9 *759:13 0.00330459
10 *127:9 *788:25 0
11 *127:9 *791:13 0.00235123
12 *127:9 *798:23 0.00646031
13 *127:9 *799:27 0.00381608
14 *127:19 io_out[31] 0.000173978
15 *127:21 *129:27 0.0182333
16 *46:15 *127:9 0.0415002
17 *126:19 *127:9 0.0162912
*RES
1 *804:io_out[29] *127:7 1.5678 
2 *127:7 *127:9 103.57 
3 *127:9 *127:19 33.1303 
4 *127:19 *127:21 66.1884 
5 *127:21 io_out[29] 0.863533 
*END

*D_NET *128 0.381876
*CONN
*P io_out[2] O
*I *804:io_out[2] O *D picorv32_soc
*CAP
1 io_out[2] 0.00534106
2 *804:io_out[2] 0.0200542
3 *128:21 0.0380963
4 *128:19 0.0528095
5 *128:19 *685:14 0
6 *128:21 *651:16 0.00381827
7 io_oeb[2] io_out[2] 0.00636844
8 *61:13 *128:21 0.102172
9 *90:13 *128:21 0.153216
*RES
1 *804:io_out[2] *128:19 47.2006 
2 *128:19 *128:21 226.695 
3 *128:21 io_out[2] 19.4693 
*END

*D_NET *129 0.162584
*CONN
*P io_out[30] O
*I *804:io_out[30] O *D picorv32_soc
*CAP
1 io_out[30] 0.000126497
2 *804:io_out[30] 0.00486474
3 *129:27 0.0256273
4 *129:25 0.039292
5 *129:13 0.0186559
6 *129:13 *131:9 0.0185676
7 *129:13 *727:18 0.0106933
8 *129:25 *132:9 0.000415724
9 *129:25 *759:17 0.000489198
10 *129:25 *799:25 0
11 *129:27 io_out[31] 0.000234659
12 *129:27 io_out[32] 0.000290257
13 *129:27 *130:9 0.0208482
14 *129:27 *132:9 0.00383674
15 io_oeb[32] *129:27 0.000234659
16 io_oeb[33] *129:25 6.58726e-05
17 *804:io_in[23] *129:25 0
18 *83:8 *129:25 0
19 *126:17 *129:25 0.00010765
20 *127:21 *129:27 0.0182333
*RES
1 *804:io_out[30] *129:13 35.5787 
2 *129:13 *129:25 35.2016 
3 *129:25 *129:27 106.086 
4 *129:27 io_out[30] 0.863533 
*END

*D_NET *130 0.132045
*CONN
*P io_out[31] O
*I *804:io_out[31] O *D picorv32_soc
*CAP
1 io_out[31] 0.000222134
2 *804:io_out[31] 0.0134692
3 *130:9 0.0288043
4 *130:7 0.0420514
5 *130:9 *132:9 0.0262408
6 *127:19 io_out[31] 0.000173978
7 *129:27 io_out[31] 0.000234659
8 *129:27 *130:9 0.0208482
*RES
1 *804:io_out[31] *130:7 33.1483 
2 *130:7 *130:9 113.906 
3 *130:9 io_out[31] 1.1346 
*END

*D_NET *131 0.114313
*CONN
*P io_out[32] O
*I *804:io_out[32] O *D picorv32_soc
*CAP
1 io_out[32] 0.0131628
2 *804:io_out[32] 0.000108907
3 *131:9 0.0324152
4 *131:7 0.0193613
5 *131:9 *727:18 0.00238682
6 *131:9 *788:23 0.000270864
7 *131:9 *788:25 0.0250051
8 *126:19 *131:9 0.0027442
9 *129:13 *131:9 0.0185676
10 *129:27 io_out[32] 0.000290257
*RES
1 *804:io_out[32] *131:7 0.752067 
2 *131:7 *131:9 85.8268 
3 *131:9 io_out[32] 33.8653 
*END

*D_NET *132 0.0915953
*CONN
*P io_out[33] O
*I *804:io_out[33] O *D picorv32_soc
*CAP
1 io_out[33] 0.00018536
2 *804:io_out[33] 0.012656
3 *132:9 0.0107574
4 *132:7 0.023228
5 *132:9 io_out[34] 0.0138091
6 io_oeb[33] *132:9 0.000466176
7 *804:io_in[35] *132:7 0
8 *129:25 *132:9 0.000415724
9 *129:27 *132:9 0.00383674
10 *130:9 *132:9 0.0262408
*RES
1 *804:io_out[33] *132:7 33.2649 
2 *132:7 *132:9 58.2641 
3 *132:9 io_out[33] 0.931933 
*END

*D_NET *133 0.0556262
*CONN
*P io_out[34] O
*I *804:io_out[34] O *D picorv32_soc
*CAP
1 io_out[34] 0.00744878
2 *804:io_out[34] 0.0134598
3 *133:7 0.0209086
4 *132:9 io_out[34] 0.0138091
*RES
1 *804:io_out[34] *133:7 33.3814 
2 *133:7 io_out[34] 31.2205 
*END

*D_NET *134 0.0289865
*CONN
*P io_out[35] O
*I *804:io_out[35] O *D picorv32_soc
*CAP
1 io_out[35] 0.0144932
2 *804:io_out[35] 0.0144932
*RES
1 *804:io_out[35] io_out[35] 36.8112 
*END

*D_NET *135 0.041088
*CONN
*P io_out[36] O
*I *804:io_out[36] O *D picorv32_soc
*CAP
1 io_out[36] 0.000206795
2 *804:io_out[36] 0.0170998
3 *135:9 0.0173066
4 io_out[36] io_out[37] 0.000234659
5 *135:9 io_out[37] 0.00624014
*RES
1 *804:io_out[36] *135:9 44.5732 
2 *135:9 io_out[36] 1.01807 
*END

*D_NET *136 0.0656018
*CONN
*P io_out[37] O
*I *804:io_out[37] O *D picorv32_soc
*CAP
1 io_out[37] 0.00739002
2 *804:io_out[37] 0.0126866
3 *136:7 0.0200766
4 io_oeb[37] io_out[37] 0.0189738
5 io_out[36] io_out[37] 0.000234659
6 *135:9 io_out[37] 0.00624014
*RES
1 *804:io_out[37] *136:7 33.3814 
2 *136:7 io_out[37] 36.9914 
*END

*D_NET *137 0.279785
*CONN
*P io_out[3] O
*I *804:io_out[3] O *D picorv32_soc
*CAP
1 io_out[3] 0.0287995
2 *804:io_out[3] 0.000448097
3 *137:21 0.0287995
4 *137:19 0.0138701
5 *137:17 0.0138701
6 *137:15 0.051473
7 *137:13 0.051473
8 *137:11 0.00261227
9 *137:9 0.00306037
10 *137:11 *738:23 0.00909514
11 *137:11 *761:21 0
12 *137:15 *802:Di0[0] 0.000399925
13 *137:15 *138:25 0.00972346
14 *137:19 *696:5 0
15 io_oeb[1] *137:15 0
16 *61:13 *137:15 0
17 *61:17 *137:11 0.00552244
18 *63:13 *137:15 0.0606381
*RES
1 *804:io_out[3] *137:9 1.222 
2 *137:9 *137:11 105.165 
3 *137:11 *137:13 0.5 
4 *137:13 *137:15 184.918 
5 *137:15 *137:17 0.5 
6 *137:17 *137:19 252.555 
7 *137:19 *137:21 0.5 
8 *137:21 io_out[3] 75.5035 
*END

*D_NET *138 0.366113
*CONN
*P io_out[4] O
*I *804:io_out[4] O *D picorv32_soc
*CAP
1 io_out[4] 5.34715e-05
2 *804:io_out[4] 0.0117012
3 *138:29 0.013061
4 *138:27 0.0130075
5 *138:25 0.109434
6 *138:7 0.121135
7 *138:25 *139:17 0.000147293
8 *138:25 *651:16 0
9 *138:25 *682:10 0.000147293
10 *138:25 *748:15 0.00293537
11 *138:25 *749:15 0.00261747
12 *138:25 *750:15 0.00261747
13 *138:25 *751:15 0.00585367
14 io_oeb[1] *138:25 0.00723041
15 io_oeb[3] *138:29 0.0106427
16 *804:io_in[5] *138:7 0
17 *52:19 *138:25 0.000794541
18 *62:29 *138:25 0.000263245
19 *63:9 *138:29 0.0337388
20 *63:13 *138:25 0.0145497
21 *63:17 *138:25 0.000204634
22 *90:11 *138:25 0
23 *100:17 *138:25 0.00625473
24 *137:15 *138:25 0.00972346
*RES
1 *804:io_out[4] *138:7 30.235 
2 *138:7 *138:25 49.9791 
3 *138:25 *138:27 0.5 
4 *138:27 *138:29 377.505 
5 *138:29 io_out[4] 0.6064 
*END

*D_NET *139 0.39531
*CONN
*P io_out[5] O
*I *804:io_out[5] O *D picorv32_soc
*CAP
1 io_out[5] 0.0019686
2 *804:io_out[5] 0.0137581
3 *139:33 0.011446
4 *139:31 0.00947744
5 *139:29 0.0398844
6 *139:27 0.039953
7 *139:21 0.0219599
8 *139:19 0.0218913
9 *139:17 0.00210992
10 *139:15 0.015868
11 *139:15 *682:10 0.000265128
12 *139:15 *748:15 0.000422051
13 *139:15 *749:15 0.000369811
14 *139:15 *750:15 0.000182567
15 *139:15 *751:15 0.000401687
16 *139:17 *682:10 0.0130493
17 *139:17 *748:15 0.000261539
18 *139:21 *646:9 0
19 *139:21 *647:9 0
20 *139:21 *648:9 0.00474141
21 *139:21 *651:16 0.000809558
22 *139:21 *652:9 0.00143162
23 *139:21 *653:15 7.7924e-05
24 *139:29 *646:17 0.0180044
25 *139:29 *647:17 2.01504e-05
26 *139:29 *691:11 0.0026351
27 *804:io_in[5] *139:15 0.001386
28 *52:19 *139:33 0.000570574
29 *63:9 *139:33 0.044865
30 *63:17 *139:17 0.0124184
31 *79:10 *139:21 0.0710968
32 *79:10 *139:29 0.00220502
33 *79:18 *139:29 0
34 *100:7 *139:15 0
35 *100:17 *139:15 0.00026748
36 *100:17 *139:17 0.00250124
37 *100:23 *139:33 0.0388635
38 *138:25 *139:17 0.000147293
*RES
1 *804:io_out[5] *139:15 35.4492 
2 *139:15 *139:17 146.475 
3 *139:17 *139:19 0.5 
4 *139:19 *139:21 104.976 
5 *139:21 *139:27 3.4975 
6 *139:27 *139:29 744.96 
7 *139:29 *139:31 2 
8 *139:31 *139:33 522.907 
9 *139:33 io_out[5] 35.8581 
*END

*D_NET *140 0.318023
*CONN
*P io_out[6] O
*I *804:io_out[6] O *D picorv32_soc
*CAP
1 io_out[6] 0.00254912
2 *804:io_out[6] 0.00161154
3 *140:13 0.0673525
4 *140:11 0.0648034
5 *140:9 0.0270699
6 *140:7 0.0286815
7 *140:13 *802:A0[0] 0.00119847
8 *140:13 *802:A0[1] 0.00164335
9 *140:13 *802:A0[2] 0.0169308
10 *140:13 *802:A0[7] 0
11 *140:13 *657:8 0
12 *140:13 *658:8 0
13 *140:13 *658:10 0.029604
14 *140:13 *659:16 0.000693663
15 *140:13 *664:26 0.000313417
16 *140:13 *682:8 0
17 *140:13 *686:16 0.00656661
18 *140:13 *687:16 0
19 io_oeb[6] *140:13 2.35843e-05
20 *34:9 *140:9 0.035074
21 *35:9 *140:9 0
22 *64:11 io_out[6] 0.00261068
23 *64:13 *140:13 0.0302297
24 *102:19 *140:13 0.00106645
*RES
1 *804:io_out[6] *140:7 4.015 
2 *140:7 *140:9 95.2153 
3 *140:9 *140:11 0.5 
4 *140:11 *140:13 257.227 
5 *140:13 io_out[6] 10.2378 
*END

*D_NET *141 0.353184
*CONN
*P io_out[7] O
*I *804:io_out[7] O *D picorv32_soc
*CAP
1 io_out[7] 0.0882663
2 *804:io_out[7] 0.0116453
3 *141:11 0.0882663
4 *141:9 0.0306055
5 *141:7 0.0422508
6 *141:9 *747:5 0.00337723
7 *141:9 *752:27 0.00481146
8 *141:9 *753:27 0.00500889
9 *141:9 *754:31 0.00327781
10 *141:9 *755:13 0.00266571
11 *141:9 *757:13 0.00554131
12 *141:9 *758:13 0.00334777
13 *141:9 *780:13 0.00297745
14 *141:9 *781:13 0.00455384
15 *141:9 *782:13 0.0054908
16 *32:9 *141:9 0
17 *33:9 *141:9 0.0510971
*RES
1 *804:io_out[7] *141:7 28.487 
2 *141:7 *141:9 115.371 
3 *141:9 *141:11 0.5 
4 *141:11 io_out[7] 232.736 
*END

*D_NET *142 0.335296
*CONN
*P io_out[8] O
*I *804:io_out[8] O *D picorv32_soc
*CAP
1 io_out[8] 0.0954224
2 *804:io_out[8] 0.00402741
3 *142:11 0.0954224
4 *142:9 0.0402954
5 *142:7 0.0443228
6 *65:9 *142:9 0.0558051
7 *109:9 *142:9 0
*RES
1 *804:io_out[8] *142:7 9.9582 
2 *142:7 *142:9 144.311 
3 *142:9 *142:11 0.5 
4 *142:11 io_out[8] 251.265 
*END

*D_NET *143 0.334092
*CONN
*P io_out[9] O
*I *804:io_out[9] O *D picorv32_soc
*CAP
1 io_out[9] 0.0983791
2 *804:io_out[9] 0.000832813
3 *143:11 0.0983791
4 *143:9 0.0583401
5 *143:7 0.059173
6 *143:9 *740:10 0.00921859
7 *143:9 *741:13 0.00328594
8 *143:9 *769:15 0.00648321
9 *67:9 *143:9 0
10 *69:9 *143:9 0
11 *73:9 *143:9 0
*RES
1 *804:io_out[9] *143:7 2.15047 
2 *143:7 *143:9 173.338 
3 *143:9 *143:11 0.5 
4 *143:11 io_out[9] 259.073 
*END

*D_NET *529 0.407113
*CONN
*P user_irq[0] O
*I *804:irq_out[0] O *D picorv32_soc
*CAP
1 user_irq[0] 0.00145635
2 *804:irq_out[0] 0.0117125
3 *529:32 0.00885237
4 *529:30 0.00739601
5 *529:28 0.0753075
6 *529:26 0.08702
7 user_irq[0] *530:18 0
8 *529:26 *545:19 0.00125286
9 *529:26 *609:17 0.000203008
10 *529:26 *727:24 4.11135e-05
11 *529:28 *803:cpu_mem_wdata[13] 0.000687023
12 *529:28 *803:cpu_mem_wdata[14] 0.000900423
13 *529:28 *551:19 0.00309636
14 *529:28 *562:27 0.153931
15 *529:28 *584:19 0.0229485
16 *529:28 *588:35 0.00160985
17 *529:28 *650:6 0.014536
18 *529:28 *681:27 0.0111952
19 *529:28 *682:14 0.000972337
20 *529:28 *687:30 0
21 *529:28 *703:8 0.0009773
22 *529:28 *705:8 0.000288605
23 *529:28 *706:8 0.000307043
24 *529:28 *738:21 0
25 *529:28 *739:13 0.0011704
26 *529:28 *748:13 0.000589318
27 *529:28 *750:11 0.000661965
28 *529:28 *751:11 0
29 *529:32 *530:18 0
*RES
1 *804:irq_out[0] *529:26 26.3602 
2 *529:26 *529:28 1893.81 
3 *529:28 *529:30 2 
4 *529:30 *529:32 134.753 
5 *529:32 user_irq[0] 26.4075 
*END

*D_NET *530 0.288681
*CONN
*P user_irq[1] O
*I *804:irq_out[1] O *D picorv32_soc
*CAP
1 user_irq[1] 0.000361034
2 *804:irq_out[1] 0.00184296
3 *530:18 0.0132551
4 *530:16 0.0128941
5 *530:14 0.118609
6 *530:12 0.120452
7 user_irq[1] user_irq[2] 0.000685337
8 *530:12 *792:33 3.41669e-05
9 *530:14 *540:29 0
10 *530:14 *699:9 0
11 *530:14 *717:11 0
12 *530:14 *719:11 0.0205478
13 user_irq[0] *530:18 0
14 *106:13 *530:14 0
15 *529:32 *530:18 0
*RES
1 *804:irq_out[1] *530:12 6.41593 
2 *530:12 *530:14 311.794 
3 *530:14 *530:16 0.5 
4 *530:16 *530:18 234.195 
5 *530:18 user_irq[1] 3.46103 
*END

*D_NET *531 0.372234
*CONN
*P user_irq[2] O
*I *804:irq_out[2] O *D picorv32_soc
*CAP
1 user_irq[2] 0.00259324
2 *804:irq_out[2] 0.00611632
3 *531:18 0.0120716
4 *531:16 0.00947836
5 *531:14 0.0716473
6 *531:12 0.0777636
7 *531:12 *803:cpu_mem_addr[7] 0.00300073
8 *531:12 *792:33 3.41669e-05
9 *531:14 *803:cpu_mem_wdata[24] 0.00232578
10 *531:14 *803:cpu_mem_wdata[25] 0
11 *531:14 *803:cpu_mem_wdata[29] 0
12 *531:14 *685:18 0
13 *531:14 *704:11 0
14 *531:14 *708:11 0
15 *531:14 *709:11 0
16 *531:14 *724:14 0.0239155
17 *531:14 *789:19 0
18 *531:14 *790:19 0
19 user_irq[1] user_irq[2] 0.000685337
20 *41:5 *531:14 0.162602
*RES
1 *804:irq_out[2] *531:12 16.9242 
2 *531:12 *531:14 291.4 
3 *531:14 *531:16 0.5 
4 *531:16 *531:18 172.485 
5 *531:18 user_irq[2] 9.17577 
*END

*D_NET *540 0.205494
*CONN
*P wb_clk_i I
*I *802:CLK I *D DFFRAM512x32
*I *804:clk I *D picorv32_soc
*I *803:clk I *D memory_macro
*CAP
1 wb_clk_i 0.00448138
2 *802:CLK 0
3 *804:clk 0
4 *803:clk 3.4696e-05
5 *540:44 0.0227841
6 *540:37 0.0253952
7 *540:29 0.0317959
8 *540:27 0.043103
9 *540:11 0.0184342
10 *540:11 *803:wbs_cyc_i 0.00431965
11 *540:27 *803:wbs_cyc_i 0.000340847
12 *540:37 *763:23 9.2273e-05
13 *540:44 *804:rst_n 3.41669e-05
14 *540:44 *763:23 0.00870508
15 *61:13 *540:44 0
16 *79:10 *540:44 0.0459731
17 *530:14 *540:29 0
*RES
1 wb_clk_i *540:11 24.414 
2 *540:11 *803:clk 1.0625 
3 *540:11 *540:27 38.9582 
4 *540:27 *540:29 71.4729 
5 *540:29 *540:37 6.9774 
6 *540:37 *804:clk 0.5 
7 *540:37 *540:44 90.8631 
8 *540:44 *802:CLK 0.5 
*END

*D_NET *541 0.113548
*CONN
*P wb_rst_i I
*I *803:rst_n I *D memory_macro
*I *804:rst_n I *D picorv32_soc
*CAP
1 wb_rst_i 0.00761952
2 *803:rst_n 3.4696e-05
3 *804:rst_n 0.0045691
4 *541:51 0.0368281
5 *541:49 0.043735
6 *541:39 0.0191302
7 *541:39 wbs_dat_o[1] 0.00056435
8 *541:39 *565:17 0.000739349
9 *541:39 *568:9 8.81436e-05
10 *541:39 *568:11 0
11 *541:39 *569:9 6.88485e-05
12 *541:39 *598:17 4.21127e-05
13 *541:39 *601:33 0
14 *541:39 *642:21 4.21127e-05
15 *541:39 *643:11 2.81428e-05
16 *541:49 *803:wbs_cyc_i 2.38643e-05
17 *540:44 *804:rst_n 3.41669e-05
*RES
1 wb_rst_i *541:39 33.7395 
2 *541:39 *541:49 32.527 
3 *541:49 *541:51 84.4081 
4 *541:51 *804:rst_n 13.4789 
5 *541:39 *803:rst_n 0.5625 
*END

*D_NET *542 0.0291749
*CONN
*P wbs_ack_o O
*I *803:wbs_ack_o O *D memory_macro
*CAP
1 wbs_ack_o 0.00314981
2 *803:wbs_ack_o 0.00314981
3 wbs_ack_o *803:wbs_dat_i[0] 0.000149216
4 wbs_ack_o *803:wbs_dat_i[5] 6.32125e-05
5 wbs_ack_o *803:wbs_stb_i 0.0112345
6 wbs_ack_o *803:wbs_we_i 0.0111128
7 wbs_ack_o *633:25 0.000315602
*RES
1 *803:wbs_ack_o wbs_ack_o 31.2374 
*END

*D_NET *543 0.042478
*CONN
*P wbs_adr_i[0] I
*I *803:wbs_adr_i[0] I *D memory_macro
*CAP
1 wbs_adr_i[0] 0.00415669
2 *803:wbs_adr_i[0] 0.00415669
3 *803:wbs_adr_i[0] wbs_dat_o[0] 0.0170036
4 *803:wbs_adr_i[0] wbs_dat_o[9] 0.00198146
5 *803:wbs_adr_i[0] *803:wbs_cyc_i 0.0123659
6 *803:wbs_adr_i[0] *803:wbs_stb_i 0.000781233
7 *803:wbs_adr_i[0] *803:wbs_we_i 0.00115428
8 *803:wbs_adr_i[0] *601:35 0.00083088
9 *803:wbs_adr_i[0] *638:27 4.7371e-05
*RES
1 wbs_adr_i[0] *803:wbs_adr_i[0] 40.0825 
*END

*D_NET *544 0.159577
*CONN
*P wbs_adr_i[10] I
*I *803:wbs_adr_i[10] I *D memory_macro
*CAP
1 wbs_adr_i[10] 0.00020648
2 *803:wbs_adr_i[10] 0.0433793
3 *544:11 0.0460432
4 *544:9 0.00287035
5 *803:wbs_adr_i[10] wbs_dat_o[21] 3.44105e-05
6 *803:wbs_adr_i[10] *803:wbs_adr_i[20] 0.000136819
7 *803:wbs_adr_i[10] *803:wbs_dat_i[7] 0.0159445
8 *803:wbs_adr_i[10] *803:wbs_dat_i[8] 0.00234324
9 *803:wbs_adr_i[10] *577:45 4.60198e-05
10 *803:wbs_adr_i[10] *580:11 0.000319704
11 *803:wbs_adr_i[10] *600:25 0.00644823
12 *803:wbs_adr_i[10] *604:13 0.000559135
13 *803:wbs_adr_i[10] *611:31 0.00919381
14 *803:wbs_adr_i[10] *622:17 4.21127e-05
15 *544:11 *572:25 0.00222225
16 *544:11 *577:11 0.00206583
17 *544:11 *582:11 0.00212018
18 *544:11 *606:11 0.017181
19 *544:11 *610:9 0.000212004
20 *544:11 *617:9 0.000341959
21 *544:11 *618:9 0.00038021
22 *544:11 *621:9 3.1835e-05
23 *544:11 *634:27 0.00745418
*RES
1 wbs_adr_i[10] *544:9 3.83 
2 *544:9 *544:11 156.045 
3 *544:11 *803:wbs_adr_i[10] 47.9151 
*END

*D_NET *545 0.246487
*CONN
*P wbs_adr_i[11] I
*I *803:wbs_adr_i[11] I *D memory_macro
*CAP
1 wbs_adr_i[11] 0.0105077
2 *803:wbs_adr_i[11] 0.0104538
3 *545:19 0.0251007
4 *545:17 0.0251546
5 *803:wbs_adr_i[11] *581:11 0.000238644
6 *803:wbs_adr_i[11] *622:17 0.000388408
7 *545:17 wbs_dat_o[10] 0
8 *545:17 *571:19 0.000123132
9 *545:17 *572:25 0.000118636
10 *545:17 *788:25 0.000355891
11 *545:19 *803:cpu_mem_addr[2] 0
12 *545:19 *803:cpu_mem_wdata[2] 0
13 *545:19 *546:19 0.0773641
14 *545:19 *552:21 0.0159796
15 *545:19 *609:17 0.0794493
16 *545:19 *685:18 0
17 *529:26 *545:19 0.00125286
*RES
1 wbs_adr_i[11] *545:17 30.4696 
2 *545:17 *545:19 120.767 
3 *545:19 *803:wbs_adr_i[11] 29.042 
*END

*D_NET *546 0.241247
*CONN
*P wbs_adr_i[12] I
*I *803:wbs_adr_i[12] I *D memory_macro
*CAP
1 wbs_adr_i[12] 0.0105339
2 *803:wbs_adr_i[12] 0.012176
3 *546:19 0.0293226
4 *546:17 0.0276805
5 *803:wbs_adr_i[12] *803:wbs_dat_i[12] 0.00052532
6 *803:wbs_adr_i[12] *552:21 0.00115931
7 *803:wbs_adr_i[12] *614:17 0.0024449
8 *803:wbs_adr_i[12] *622:17 0.000503946
9 *803:wbs_adr_i[12] *625:9 0.000113638
10 *803:wbs_adr_i[12] *685:18 0
11 *803:wbs_adr_i[12] *752:25 7.80759e-05
12 *803:wbs_adr_i[12] *753:25 7.80759e-05
13 *803:wbs_adr_i[12] *784:27 0.000654752
14 *546:17 *571:19 4.32417e-05
15 *546:17 *572:25 3.99991e-05
16 *546:19 *803:cpu_mem_wdata[2] 0
17 *546:19 *803:cpu_mem_wdata[3] 0
18 *546:19 *614:17 0.0746771
19 *546:19 *685:18 0
20 *546:19 *756:16 6.83077e-06
21 *546:19 *784:27 0.00384476
22 *545:19 *546:19 0.0773641
*RES
1 wbs_adr_i[12] *546:17 30.2669 
2 *546:17 *546:19 122.456 
3 *546:19 *803:wbs_adr_i[12] 36.4292 
*END

*D_NET *547 0.181668
*CONN
*P wbs_adr_i[13] I
*I *803:wbs_adr_i[13] I *D memory_macro
*CAP
1 wbs_adr_i[13] 0.0022144
2 *803:wbs_adr_i[13] 0.000687834
3 *547:27 0.0310796
4 *547:25 0.0326062
5 *803:wbs_adr_i[13] *581:11 5.05905e-05
6 *803:wbs_adr_i[13] *622:17 8.02929e-05
7 *547:25 wbs_dat_o[15] 0
8 *547:25 *580:11 0.000322462
9 *547:25 *604:13 0.00114492
10 *547:25 *635:33 0.00161696
11 *547:25 *643:11 0.000832189
12 *547:27 *803:wbs_dat_i[4] 0.00771682
13 *547:27 *803:wbs_dat_i[5] 0.000225528
14 *547:27 *548:19 0.0885595
15 *547:27 *597:25 0.0145304
*RES
1 wbs_adr_i[13] *547:25 36.4312 
2 *547:25 *547:27 131.488 
3 *547:27 *803:wbs_adr_i[13] 3.7695 
*END

*D_NET *548 0.234254
*CONN
*P wbs_adr_i[14] I
*I *803:wbs_adr_i[14] I *D memory_macro
*CAP
1 wbs_adr_i[14] 0.0014327
2 *803:wbs_adr_i[14] 0.000639717
3 *548:19 0.0174512
4 *548:17 0.0182441
5 *803:wbs_adr_i[14] *581:11 5.05905e-05
6 *803:wbs_adr_i[14] *622:17 8.02929e-05
7 *548:17 wbs_dat_o[13] 0
8 *548:17 *571:19 4.3249e-05
9 *548:17 *572:25 4.00045e-05
10 *548:19 *803:wbs_sel_i[1] 0.000745011
11 *548:19 *553:19 0.0863973
12 *548:19 *597:25 0.0161375
13 *548:19 *600:27 0.00211606
14 *548:19 *615:17 0.00231704
15 *547:27 *548:19 0.0885595
*RES
1 wbs_adr_i[14] *548:17 5.4605 
2 *548:17 *548:19 143.957 
3 *548:19 *803:wbs_adr_i[14] 3.68337 
*END

*D_NET *549 0.198435
*CONN
*P wbs_adr_i[15] I
*I *803:wbs_adr_i[15] I *D memory_macro
*CAP
1 wbs_adr_i[15] 0.000159954
2 *803:wbs_adr_i[15] 0.00598215
3 *549:33 0.0137189
4 *549:29 0.0530678
5 *549:11 0.0467623
6 *549:9 0.00159117
7 *803:wbs_adr_i[15] *803:wbs_adr_i[20] 0.00527908
8 *803:wbs_adr_i[15] *560:11 0.00255743
9 *803:wbs_adr_i[15] *580:11 0.00710747
10 *803:wbs_adr_i[15] *589:27 0.00498695
11 *803:wbs_adr_i[15] *590:17 0.00497995
12 *803:wbs_adr_i[15] *627:9 0.0135201
13 *549:11 wbs_dat_o[20] 0.000501695
14 *549:11 wbs_dat_o[7] 0.00179145
15 *549:11 *590:15 0.000226671
16 *549:11 *602:11 0.0118894
17 *549:11 *605:11 0.0118843
18 *549:29 wbs_dat_o[13] 0.011696
19 *549:29 *558:9 0.000171426
20 *549:29 *591:9 0
21 *549:29 *635:31 0.000278402
22 *549:29 *636:33 0.000282899
*RES
1 wbs_adr_i[15] *549:9 3.32 
2 *549:9 *549:11 107.4 
3 *549:11 *549:29 36.7226 
4 *549:29 *549:33 20.1764 
5 *549:33 *803:wbs_adr_i[15] 41.6852 
*END

*D_NET *550 0.2854
*CONN
*P wbs_adr_i[16] I
*I *803:wbs_adr_i[16] I *D memory_macro
*CAP
1 wbs_adr_i[16] 0.0105395
2 *803:wbs_adr_i[16] 0.00980374
3 *550:19 0.0307065
4 *550:17 0.0314423
5 *803:wbs_adr_i[16] *583:11 2.0104e-05
6 *803:wbs_adr_i[16] *622:17 4.21127e-05
7 *550:17 wbs_dat_o[15] 0
8 *550:17 *571:19 4.32417e-05
9 *550:17 *572:25 3.99991e-05
10 *550:19 *803:cpu_mem_wdata[3] 0
11 *550:19 *551:19 0.102429
12 *550:19 *584:19 0.000251727
13 *550:19 *614:17 0.100082
*RES
1 wbs_adr_i[16] *550:17 30.0946 
2 *550:17 *550:19 158.989 
3 *550:19 *803:wbs_adr_i[16] 28.2592 
*END

*D_NET *551 0.299274
*CONN
*P wbs_adr_i[17] I
*I *803:wbs_adr_i[17] I *D memory_macro
*CAP
1 wbs_adr_i[17] 0.0105785
2 *803:wbs_adr_i[17] 0.00973788
3 *551:19 0.0317351
4 *551:17 0.0325757
5 *803:wbs_adr_i[17] *585:11 1.52249e-05
6 *803:wbs_adr_i[17] *622:17 4.21127e-05
7 *551:17 *571:19 4.32417e-05
8 *551:17 *572:25 3.99991e-05
9 *551:17 *584:17 0
10 *551:19 *584:19 0.108981
11 *529:28 *551:19 0.00309636
12 *550:19 *551:19 0.102429
*RES
1 wbs_adr_i[17] *551:17 30.0085 
2 *551:17 *551:19 166.564 
3 *551:19 *803:wbs_adr_i[17] 28.1731 
*END

*D_NET *552 0.271063
*CONN
*P wbs_adr_i[18] I
*I *803:wbs_adr_i[18] I *D memory_macro
*CAP
1 wbs_adr_i[18] 0.098866
2 *803:wbs_adr_i[18] 0.0103182
3 *552:21 0.109184
4 *803:wbs_adr_i[18] *585:11 0.000565309
5 *803:wbs_adr_i[18] *593:25 0.000390001
6 *803:wbs_adr_i[18] *622:9 0.0017553
7 *803:wbs_adr_i[18] *625:9 0.000417855
8 *552:21 *803:cpu_mem_wdata[23] 0.000642044
9 *552:21 *571:19 0.000123132
10 *552:21 *572:25 0.000118636
11 *552:21 *577:45 0.00260521
12 *552:21 *609:17 0.0152814
13 *552:21 *616:31 0.000446249
14 *552:21 *685:18 0.00804171
15 *552:21 *789:19 0.00241799
16 *552:21 *790:19 0.00275072
17 *803:wbs_adr_i[12] *552:21 0.00115931
18 *545:19 *552:21 0.0159796
*RES
1 wbs_adr_i[18] *552:21 48.1185 
2 *552:21 *803:wbs_adr_i[18] 30.8119 
*END

*D_NET *553 0.243914
*CONN
*P wbs_adr_i[19] I
*I *803:wbs_adr_i[19] I *D memory_macro
*CAP
1 wbs_adr_i[19] 0.00202749
2 *803:wbs_adr_i[19] 0.000622577
3 *553:19 0.0318358
4 *553:17 0.0332407
5 *803:wbs_adr_i[19] *586:15 2.08086e-05
6 *803:wbs_adr_i[19] *622:9 8.02929e-05
7 *553:17 *803:wbs_adr_i[20] 0.000213334
8 *553:17 *803:wbs_sel_i[1] 5.41461e-05
9 *553:17 *572:25 0.000129575
10 *553:17 *580:11 0.00164734
11 *553:17 *582:29 0
12 *553:17 *604:13 0.00291248
13 *553:17 *635:33 0.000383964
14 *553:19 *597:25 0.0214689
15 *553:19 *597:27 0
16 *553:19 *600:27 0.00751596
17 *553:19 *615:17 0.0553629
18 *553:19 *629:13 0
19 *548:19 *553:19 0.0863973
*RES
1 wbs_adr_i[19] *553:17 12.1432 
2 *553:17 *553:19 177.169 
3 *553:19 *803:wbs_adr_i[19] 3.59723 
*END

*D_NET *554 0.0662197
*CONN
*P wbs_adr_i[1] I
*I *803:wbs_adr_i[1] I *D memory_macro
*CAP
1 wbs_adr_i[1] 0.00480885
2 *803:wbs_adr_i[1] 0.000243502
3 *554:13 0.00505235
4 *554:13 *803:wbs_sel_i[0] 0.0236993
5 *554:13 *569:11 0.00107385
6 *554:13 *573:11 0.00032309
7 *554:13 *581:11 0.000422421
8 *554:13 *583:11 0.000693057
9 *554:13 *587:13 0.0252444
10 *554:13 *630:21 0.00465885
*RES
1 wbs_adr_i[1] *554:13 47.4815 
2 *554:13 *803:wbs_adr_i[1] 3.6225 
*END

*D_NET *555 0.308017
*CONN
*P wbs_adr_i[20] I
*I *803:wbs_adr_i[20] I *D memory_macro
*CAP
1 wbs_adr_i[20] 0.0721379
2 *803:wbs_adr_i[20] 0.0721379
3 *803:wbs_adr_i[20] wbs_dat_o[7] 5.05905e-05
4 *803:wbs_adr_i[20] *803:wbs_dat_i[2] 0.000990753
5 *803:wbs_adr_i[20] *803:wbs_dat_i[5] 0.00280411
6 *803:wbs_adr_i[20] *803:wbs_sel_i[2] 0.00176334
7 *803:wbs_adr_i[20] *560:11 0.0267235
8 *803:wbs_adr_i[20] *580:11 0.0179579
9 *803:wbs_adr_i[20] *582:29 0.000136819
10 *803:wbs_adr_i[20] *585:11 0.0224736
11 *803:wbs_adr_i[20] *586:15 0.0266283
12 *803:wbs_adr_i[20] *593:23 0.00217792
13 *803:wbs_adr_i[20] *595:25 0.0317594
14 *803:wbs_adr_i[20] *604:13 0.00131468
15 *803:wbs_adr_i[20] *604:29 0.00083809
16 *803:wbs_adr_i[20] *618:9 8.14646e-05
17 *803:wbs_adr_i[20] *622:9 0.000311379
18 *803:wbs_adr_i[20] *627:9 0.021319
19 *803:wbs_adr_i[20] *635:31 0.000780977
20 *803:wbs_adr_i[10] *803:wbs_adr_i[20] 0.000136819
21 *803:wbs_adr_i[15] *803:wbs_adr_i[20] 0.00527908
22 *553:17 *803:wbs_adr_i[20] 0.000213334
*RES
1 wbs_adr_i[20] *803:wbs_adr_i[20] 26.4882 
*END

*D_NET *556 0.293496
*CONN
*P wbs_adr_i[21] I
*I *803:wbs_adr_i[21] I *D memory_macro
*CAP
1 wbs_adr_i[21] 0.000743453
2 *803:wbs_adr_i[21] 0.000116567
3 *556:11 0.017528
4 *556:9 0.0181549
5 *556:9 *582:29 2.66977e-05
6 *556:9 *635:31 6.72931e-05
7 *556:11 *557:11 0.127217
8 *556:11 *565:19 0.000748579
9 *556:11 *578:11 0.0668526
10 *556:11 *581:11 0.0204741
11 *556:11 *583:11 0.00174807
12 *556:11 *593:25 0.0370935
13 *556:11 *622:9 0.00272531
14 *556:11 *633:17 0
*RES
1 wbs_adr_i[21] *556:9 11.9 
2 *556:9 *556:11 1165.52 
3 *556:11 *803:wbs_adr_i[21] 3.71 
*END

*D_NET *557 0.320876
*CONN
*P wbs_adr_i[22] I
*I *803:wbs_adr_i[22] I *D memory_macro
*CAP
1 wbs_adr_i[22] 0.000746884
2 *803:wbs_adr_i[22] 0.000133986
3 *557:11 0.0170626
4 *557:9 0.0176755
5 *557:11 *558:11 0.132098
6 *557:11 *581:11 0.0184721
7 *557:11 *583:11 0.00189622
8 *557:11 *593:25 0.00267166
9 *557:11 *622:9 0.00290239
10 *557:11 *633:17 0
11 *556:11 *557:11 0.127217
*RES
1 wbs_adr_i[22] *557:9 11.48 
2 *557:9 *557:11 1208.64 
3 *557:11 *803:wbs_adr_i[22] 3.965 
*END

*D_NET *558 0.334124
*CONN
*P wbs_adr_i[23] I
*I *803:wbs_adr_i[23] I *D memory_macro
*CAP
1 wbs_adr_i[23] 0.00071175
2 *803:wbs_adr_i[23] 0.000138442
3 *558:11 0.0176374
4 *558:9 0.0182107
5 *558:11 *559:11 0.136989
6 *558:11 *560:11 0.000244392
7 *558:11 *583:11 0.0228727
8 *558:11 *593:25 0.00219666
9 *558:11 *595:27 0.0026605
10 *558:11 *633:17 0.000193084
11 *549:29 *558:9 0.000171426
12 *557:11 *558:11 0.132098
*RES
1 wbs_adr_i[23] *558:9 11.57 
2 *558:9 *558:11 1252.8 
3 *558:11 *803:wbs_adr_i[23] 4.22 
*END

*D_NET *559 0.344213
*CONN
*P wbs_adr_i[24] I
*I *803:wbs_adr_i[24] I *D memory_macro
*CAP
1 wbs_adr_i[24] 0.000820943
2 *803:wbs_adr_i[24] 0.000152488
3 *559:11 0.0188432
4 *559:9 0.0195117
5 *559:9 *803:wbs_dat_i[8] 0.000137061
6 *559:9 *803:wbs_sel_i[3] 0
7 *559:11 *560:11 0.000244392
8 *559:11 *561:11 0.140589
9 *559:11 *568:11 0.000143097
10 *559:11 *583:11 0.0205931
11 *559:11 *593:25 0.00082588
12 *559:11 *595:27 0.00480096
13 *559:11 *633:17 0.000562432
14 *558:11 *559:11 0.136989
*RES
1 wbs_adr_i[24] *559:9 12.005 
2 *559:9 *559:11 1296.96 
3 *559:11 *803:wbs_adr_i[24] 4.475 
*END

*D_NET *560 0.37967
*CONN
*P wbs_adr_i[25] I
*I *803:wbs_adr_i[25] I *D memory_macro
*CAP
1 wbs_adr_i[25] 0.00059612
2 *803:wbs_adr_i[25] 0.000273226
3 *560:11 0.042135
4 *560:9 0.0424579
5 *560:9 *803:wbs_dat_i[7] 0
6 *560:11 *803:wbs_dat_i[4] 8.1472e-05
7 *560:11 *803:wbs_dat_i[5] 4.21127e-05
8 *560:11 *803:wbs_sel_i[2] 0.00328894
9 *560:11 *561:11 0.00030854
10 *560:11 *563:11 0.000417436
11 *560:11 *564:11 0.000452104
12 *560:11 *566:11 0.00049042
13 *560:11 *567:11 0.0581177
14 *560:11 *568:11 0.00110944
15 *560:11 *569:11 0.00250751
16 *560:11 *573:11 0.00473221
17 *560:11 *574:11 0.00996118
18 *560:11 *580:11 0.0247169
19 *560:11 *586:15 0.115586
20 *560:11 *593:23 0.00585552
21 *560:11 *595:27 0.0329963
22 *560:11 *604:29 0.00377497
23 *560:11 *622:9 0
24 *560:11 *627:9 0
25 *803:wbs_adr_i[15] *560:11 0.00255743
26 *803:wbs_adr_i[20] *560:11 0.0267235
27 *558:11 *560:11 0.000244392
28 *559:11 *560:11 0.000244392
*RES
1 wbs_adr_i[25] *560:9 7.8125 
2 *560:9 *560:11 226.754 
3 *560:11 *803:wbs_adr_i[25] 4.6325 
*END

*D_NET *561 0.369758
*CONN
*P wbs_adr_i[26] I
*I *803:wbs_adr_i[26] I *D memory_macro
*CAP
1 wbs_adr_i[26] 0.00066235
2 *803:wbs_adr_i[26] 0.000157248
3 *561:11 0.021626
4 *561:9 0.0221311
5 *561:9 *588:33 8.33491e-05
6 *561:11 *563:11 0.150435
7 *561:11 *568:11 0.00099964
8 *561:11 *585:11 0.0249563
9 *561:11 *593:25 0
10 *561:11 *595:27 0.00781001
11 *561:11 *625:9 0
12 *561:11 *632:13 0
13 *559:11 *561:11 0.140589
14 *560:11 *561:11 0.00030854
*RES
1 wbs_adr_i[26] *561:9 10.715 
2 *561:9 *561:11 1387.35 
3 *561:11 *803:wbs_adr_i[26] 4.73 
*END

*D_NET *562 0.400973
*CONN
*P wbs_adr_i[27] I
*I *803:wbs_adr_i[27] I *D memory_macro
*CAP
1 wbs_adr_i[27] 0.0116022
2 *803:wbs_adr_i[27] 0.00956982
3 *562:27 0.0377835
4 *562:25 0.0398158
5 *803:wbs_adr_i[27] *595:27 0
6 *803:wbs_adr_i[27] *629:13 1.91843e-05
7 *803:wbs_adr_i[27] *701:8 3.08879e-05
8 *562:25 *578:11 0.000256266
9 *562:25 *581:11 0.00140395
10 *562:25 *584:19 8.36497e-05
11 *562:25 *601:35 0.000279586
12 *562:25 *639:9 0.00139945
13 *562:27 *584:19 0.00944887
14 *562:27 *588:35 0.111703
15 *562:27 *650:6 0.010536
16 *562:27 *681:27 0.012214
17 *562:27 *682:14 0.00089637
18 *529:28 *562:27 0.153931
*RES
1 wbs_adr_i[27] *562:25 43.9954 
2 *562:25 *562:27 1415.98 
3 *562:27 *803:wbs_adr_i[27] 30.407 
*END

*D_NET *563 0.393101
*CONN
*P wbs_adr_i[28] I
*I *803:wbs_adr_i[28] I *D memory_macro
*CAP
1 wbs_adr_i[28] 0.000595876
2 *803:wbs_adr_i[28] 0.000178126
3 *563:11 0.0227329
4 *563:9 0.0231506
5 *563:9 wbs_dat_o[25] 0.000593967
6 *563:11 *564:11 0.161819
7 *563:11 *568:11 0.000359909
8 *563:11 *574:11 0.000192072
9 *563:11 *585:11 0.0222663
10 *563:11 *595:27 0.0103596
11 *563:11 *632:13 0
12 *560:11 *563:11 0.000417436
13 *561:11 *563:11 0.150435
*RES
1 wbs_adr_i[28] *563:9 10.805 
2 *563:9 *563:11 1476.36 
3 *563:11 *803:wbs_adr_i[28] 4.985 
*END

*D_NET *564 0.411803
*CONN
*P wbs_adr_i[29] I
*I *803:wbs_adr_i[29] I *D memory_macro
*CAP
1 wbs_adr_i[29] 0.000693779
2 *803:wbs_adr_i[29] 0.000192681
3 *564:11 0.0220435
4 *564:9 0.0225446
5 *564:11 *566:11 0.166692
6 *564:11 *574:11 0.000633669
7 *564:11 *586:15 0.0255003
8 *564:11 *595:27 0.0112319
9 *560:11 *564:11 0.000452104
10 *563:11 *564:11 0.161819
*RES
1 wbs_adr_i[29] *564:9 10.205 
2 *564:9 *564:11 1521.21 
3 *564:11 *803:wbs_adr_i[29] 5.24 
*END

*D_NET *565 0.0468139
*CONN
*P wbs_adr_i[2] I
*I *803:wbs_adr_i[2] I *D memory_macro
*CAP
1 wbs_adr_i[2] 0.00252533
2 *803:wbs_adr_i[2] 0.000433864
3 *565:19 0.00839515
4 *565:17 0.0104866
5 *803:wbs_adr_i[2] *601:35 0.00154674
6 *803:wbs_adr_i[2] *630:13 0.000905204
7 *803:wbs_adr_i[2] *639:9 0.000295743
8 *565:17 *803:wbs_dat_i[0] 0.000113834
9 *565:17 *587:13 0.00211438
10 *565:17 *598:17 0.00221336
11 *565:17 *601:33 0.000986701
12 *565:17 *641:27 0
13 *565:19 *803:wbs_sel_i[0] 0.00238837
14 *565:19 *568:11 0
15 *565:19 *578:11 0.0058104
16 *565:19 *581:11 0.000592957
17 *565:19 *583:11 0.00187138
18 *565:19 *601:35 0.00233224
19 *565:19 *630:21 0.00196213
20 *565:19 *633:17 0.0003516
21 *541:39 *565:17 0.000739349
22 *556:11 *565:19 0.000748579
*RES
1 wbs_adr_i[2] *565:17 22.7349 
2 *565:17 *565:19 211.935 
3 *565:19 *803:wbs_adr_i[2] 22.575 
*END

*D_NET *566 0.420026
*CONN
*P wbs_adr_i[30] I
*I *803:wbs_adr_i[30] I *D memory_macro
*CAP
1 wbs_adr_i[30] 0.000744483
2 *803:wbs_adr_i[30] 0.000203958
3 *566:11 0.0225191
4 *566:9 0.0230596
5 *566:11 *803:wbs_dat_i[30] 0.000467962
6 *566:11 *567:11 0.17166
7 *566:11 *574:11 0.00085892
8 *566:11 *586:15 0.0230353
9 *566:11 *595:27 0.010295
10 *560:11 *566:11 0.00049042
11 *564:11 *566:11 0.166692
*RES
1 wbs_adr_i[30] *566:9 10.295 
2 *566:9 *566:11 1565.37 
3 *566:11 *803:wbs_adr_i[30] 5.495 
*END

*D_NET *567 0.374894
*CONN
*P wbs_adr_i[31] I
*I *803:wbs_adr_i[31] I *D memory_macro
*CAP
1 wbs_adr_i[31] 0.0007132
2 *803:wbs_adr_i[31] 0.000213431
3 *567:11 0.0510001
4 *567:9 0.0514999
5 *567:9 *589:25 5.12981e-05
6 *567:11 *803:wbs_dat_i[26] 0.000267345
7 *567:11 *803:wbs_dat_i[28] 0.000220852
8 *567:11 *803:wbs_dat_i[30] 0.00128897
9 *567:11 *574:11 0.0370415
10 *567:11 *595:27 0.00281944
11 *560:11 *567:11 0.0581177
12 *566:11 *567:11 0.17166
*RES
1 wbs_adr_i[31] *567:9 10.04 
2 *567:9 *567:11 1610.22 
3 *567:11 *803:wbs_adr_i[31] 5.75 
*END

*D_NET *568 0.085805
*CONN
*P wbs_adr_i[3] I
*I *803:wbs_adr_i[3] I *D memory_macro
*CAP
1 wbs_adr_i[3] 0.000421577
2 *803:wbs_adr_i[3] 0.000295392
3 *568:11 0.00728212
4 *568:9 0.0074083
5 *568:11 *803:wbs_dat_i[2] 0.00100605
6 *568:11 *569:11 0.00244776
7 *568:11 *573:11 0.000905226
8 *568:11 *574:11 0.0287186
9 *568:11 *586:13 0.000113818
10 *568:11 *586:15 0.00145776
11 *568:11 *587:13 0.00505976
12 *568:11 *630:21 0.0200429
13 *568:11 *633:17 0.0079454
14 *541:39 *568:9 8.81436e-05
15 *541:39 *568:11 0
16 *559:11 *568:11 0.000143097
17 *560:11 *568:11 0.00110944
18 *561:11 *568:11 0.00099964
19 *563:11 *568:11 0.000359909
20 *565:19 *568:11 0
*RES
1 wbs_adr_i[3] *568:9 9.35 
2 *568:9 *568:11 345.45 
3 *568:11 *803:wbs_adr_i[3] 5.75 
*END

*D_NET *569 0.0943065
*CONN
*P wbs_adr_i[4] I
*I *803:wbs_adr_i[4] I *D memory_macro
*CAP
1 wbs_adr_i[4] 0.000414331
2 *803:wbs_adr_i[4] 0.0003354
3 *569:11 0.0114134
4 *569:9 0.0114923
5 *803:wbs_adr_i[4] *593:23 7.05152e-05
6 *569:11 *803:wbs_dat_i[2] 0.00501915
7 *569:11 *803:wbs_sel_i[2] 0.000814117
8 *569:11 *570:19 0.0194061
9 *569:11 *573:11 0.0387639
10 *569:11 *579:11 0
11 *569:11 *587:13 0.000479384
12 *569:11 *588:11 0
13 *569:11 *635:33 0
14 *541:39 *569:9 6.88485e-05
15 *554:13 *569:11 0.00107385
16 *560:11 *569:11 0.00250751
17 *568:11 *569:11 0.00244776
*RES
1 wbs_adr_i[4] *569:9 8.93 
2 *569:9 *569:11 404.79 
3 *569:11 *803:wbs_adr_i[4] 6.515 
*END

*D_NET *570 0.0982044
*CONN
*P wbs_adr_i[5] I
*I *803:wbs_adr_i[5] I *D memory_macro
*CAP
1 wbs_adr_i[5] 6.65325e-05
2 *803:wbs_adr_i[5] 0.000385352
3 *570:19 0.00861547
4 *570:17 0.00862724
5 *570:11 0.00387157
6 *570:9 0.00354098
7 *570:11 wbs_dat_o[7] 0.000329508
8 *570:11 *803:wbs_stb_i 0.000318435
9 *570:11 *572:25 0.0019655
10 *570:11 *606:11 0.0187995
11 *570:11 *607:15 0.0174537
12 *570:11 *633:25 0.00380466
13 *570:11 *634:27 0.00205007
14 *570:11 *636:33 0.000117682
15 *570:17 *635:31 0
16 *570:19 *803:wbs_sel_i[2] 0.00173859
17 *570:19 *573:11 0.00383786
18 *570:19 *580:11 0.000167345
19 *570:19 *588:11 0.000889807
20 *570:19 *589:25 0
21 *570:19 *590:17 0
22 *570:19 *593:23 0.00221855
23 *569:11 *570:19 0.0194061
*RES
1 wbs_adr_i[5] *570:9 2.975 
2 *570:9 *570:11 215.73 
3 *570:11 *570:17 9.46 
4 *570:17 *570:19 234.015 
5 *570:19 *803:wbs_adr_i[5] 6.77 
*END

*D_NET *571 0.121576
*CONN
*P wbs_adr_i[6] I
*I *803:wbs_adr_i[6] I *D memory_macro
*CAP
1 wbs_adr_i[6] 0.0379965
2 *803:wbs_adr_i[6] 0.00502568
3 *571:19 0.0430222
4 *803:wbs_adr_i[6] *581:11 4.60198e-05
5 *803:wbs_adr_i[6] *639:9 4.21127e-05
6 *571:19 wbs_dat_o[10] 4.32417e-05
7 *571:19 wbs_dat_o[13] 4.32417e-05
8 *571:19 wbs_dat_o[15] 0.000123132
9 *571:19 wbs_dat_o[7] 0.0168734
10 *571:19 *803:wbs_stb_i 0.00211306
11 *571:19 *572:25 0.00742159
12 *571:19 *602:11 0.00101485
13 *571:19 *605:11 0.00100557
14 *571:19 *607:15 0.0029039
15 *571:19 *616:31 0.000245728
16 *571:19 *633:25 0.00266169
17 *571:19 *641:27 0.000575123
18 *545:17 *571:19 0.000123132
19 *546:17 *571:19 4.32417e-05
20 *548:17 *571:19 4.3249e-05
21 *550:17 *571:19 4.32417e-05
22 *551:17 *571:19 4.32417e-05
23 *552:21 *571:19 0.000123132
*RES
1 wbs_adr_i[6] *571:19 49.9272 
2 *571:19 *803:wbs_adr_i[6] 14.1434 
*END

*D_NET *572 0.144711
*CONN
*P wbs_adr_i[7] I
*I *803:wbs_adr_i[7] I *D memory_macro
*CAP
1 wbs_adr_i[7] 0.00616914
2 *803:wbs_adr_i[7] 0.00661296
3 *572:37 0.0325673
4 *572:25 0.0321235
5 *803:wbs_adr_i[7] *581:11 0.000485379
6 *803:wbs_adr_i[7] *593:25 0.000104399
7 *803:wbs_adr_i[7] *639:9 0.000480889
8 *572:25 wbs_dat_o[10] 3.99991e-05
9 *572:25 wbs_dat_o[13] 3.99991e-05
10 *572:25 wbs_dat_o[15] 0.000118636
11 *572:25 wbs_dat_o[7] 0.00442424
12 *572:25 *606:11 0.00161716
13 *572:25 *610:9 0.0113006
14 *572:25 *616:31 0.000281236
15 *572:25 *633:25 0.000705474
16 *572:25 *634:27 0.00273625
17 *572:25 *636:33 0.000250858
18 *572:25 *639:9 4.20804e-05
19 *572:25 *641:27 0.00653862
20 *572:37 *803:wbs_dat_i[7] 0.000484125
21 *572:37 *803:wbs_dat_i[9] 0
22 *572:37 *803:wbs_sel_i[1] 0.00252262
23 *572:37 *803:wbs_sel_i[3] 0.00176673
24 *572:37 *582:29 0.00904222
25 *572:37 *615:17 0.00935715
26 *572:37 *638:27 0.00276313
27 *544:11 *572:25 0.00222225
28 *545:17 *572:25 0.000118636
29 *546:17 *572:25 3.99991e-05
30 *548:17 *572:25 4.00045e-05
31 *550:17 *572:25 3.99991e-05
32 *551:17 *572:25 3.99991e-05
33 *552:21 *572:25 0.000118636
34 *553:17 *572:25 0.000129575
35 *570:11 *572:25 0.0019655
36 *571:19 *572:25 0.00742159
*RES
1 wbs_adr_i[7] *572:25 41.5812 
2 *572:25 *572:37 34.7173 
3 *572:37 *803:wbs_adr_i[7] 18.6603 
*END

*D_NET *573 0.144308
*CONN
*P wbs_adr_i[8] I
*I *803:wbs_adr_i[8] I *D memory_macro
*CAP
1 wbs_adr_i[8] 0.000497164
2 *803:wbs_adr_i[8] 0.000347243
3 *573:11 0.0124935
4 *573:9 0.0126435
5 *573:11 *803:wbs_dat_i[2] 0.00511355
6 *573:11 *803:wbs_sel_i[2] 0.000897219
7 *573:11 *574:11 0.0628751
8 *573:11 *590:17 0
9 *573:11 *604:29 0.000878821
10 *554:13 *573:11 0.00032309
11 *560:11 *573:11 0.00473221
12 *568:11 *573:11 0.000905226
13 *569:11 *573:11 0.0387639
14 *570:19 *573:11 0.00383786
*RES
1 wbs_adr_i[8] *573:9 9.185 
2 *573:9 *573:11 583.5 
3 *573:11 *803:wbs_adr_i[8] 6.26 
*END

*D_NET *574 0.167324
*CONN
*P wbs_adr_i[9] I
*I *803:wbs_adr_i[9] I *D memory_macro
*CAP
1 wbs_adr_i[9] 0.000574855
2 *803:wbs_adr_i[9] 0.000324494
3 *574:11 0.0104254
4 *574:9 0.0106758
5 *574:11 *803:wbs_dat_i[2] 0.00028207
6 *574:11 *586:13 0.000246493
7 *574:11 *586:15 0.00159041
8 *574:11 *587:13 0.00292367
9 *574:11 *590:17 0
10 *560:11 *574:11 0.00996118
11 *563:11 *574:11 0.000192072
12 *564:11 *574:11 0.000633669
13 *566:11 *574:11 0.00085892
14 *567:11 *574:11 0.0370415
15 *568:11 *574:11 0.0287186
16 *573:11 *574:11 0.0628751
*RES
1 wbs_adr_i[9] *574:9 9.785 
2 *574:9 *574:11 627.66 
3 *574:11 *803:wbs_adr_i[9] 6.005 
*END

*D_NET *575 0.0266668
*CONN
*P wbs_cyc_i I
*I *803:wbs_cyc_i I *D memory_macro
*CAP
1 wbs_cyc_i 0.00415775
2 *803:wbs_cyc_i 0.00415775
3 *803:wbs_cyc_i *803:wbs_we_i 0.00130108
4 *803:wbs_cyc_i *601:33 0
5 *803:wbs_adr_i[0] *803:wbs_cyc_i 0.0123659
6 *540:11 *803:wbs_cyc_i 0.00431965
7 *540:27 *803:wbs_cyc_i 0.000340847
8 *541:49 *803:wbs_cyc_i 2.38643e-05
*RES
1 wbs_cyc_i *803:wbs_cyc_i 33.5075 
*END

*D_NET *576 0.0405057
*CONN
*P wbs_dat_i[0] I
*I *803:wbs_dat_i[0] I *D memory_macro
*CAP
1 wbs_dat_i[0] 0.00576201
2 *803:wbs_dat_i[0] 0.00576201
3 *803:wbs_dat_i[0] wbs_dat_o[1] 1.83513e-05
4 *803:wbs_dat_i[0] wbs_dat_o[5] 0
5 *803:wbs_dat_i[0] *803:wbs_dat_i[2] 0.00318302
6 *803:wbs_dat_i[0] *803:wbs_dat_i[5] 8.26058e-05
7 *803:wbs_dat_i[0] *803:wbs_sel_i[2] 0.00302297
8 *803:wbs_dat_i[0] *803:wbs_stb_i 0.000270456
9 *803:wbs_dat_i[0] *803:wbs_we_i 0.00927574
10 *803:wbs_dat_i[0] *587:13 0.000755926
11 *803:wbs_dat_i[0] *601:33 0.000748986
12 *803:wbs_dat_i[0] *604:13 0.00372472
13 *803:wbs_dat_i[0] *633:25 0.000238901
14 *803:wbs_dat_i[0] *635:33 0.000171545
15 *803:wbs_dat_i[0] *641:27 0.00722537
16 wbs_ack_o *803:wbs_dat_i[0] 0.000149216
17 *565:17 *803:wbs_dat_i[0] 0.000113834
*RES
1 wbs_dat_i[0] *803:wbs_dat_i[0] 44.561 
*END

*D_NET *577 0.171075
*CONN
*P wbs_dat_i[10] I
*I *803:wbs_dat_i[10] I *D memory_macro
*CAP
1 wbs_dat_i[10] 0.000278419
2 *803:wbs_dat_i[10] 8.20473e-05
3 *577:45 0.0477001
4 *577:11 0.0500453
5 *577:9 0.00270575
6 *577:11 *582:11 0.00309218
7 *577:11 *610:9 0.00147021
8 *577:11 *613:9 0.000412399
9 *577:11 *634:27 0.00699779
10 *577:11 *636:33 0.000304217
11 *577:11 *643:11 0.000797329
12 *577:45 wbs_dat_o[12] 0.000522549
13 *577:45 *578:11 0.00093093
14 *577:45 *579:33 0.0414575
15 *577:45 *581:11 0.00257744
16 *577:45 *593:25 0.000853282
17 *577:45 *604:13 0.000518053
18 *577:45 *616:31 0.000649763
19 *577:45 *622:17 0.00402245
20 *577:45 *625:9 0.000940149
21 *803:wbs_adr_i[10] *577:45 4.60198e-05
22 *544:11 *577:11 0.00206583
23 *552:21 *577:45 0.00260521
*RES
1 wbs_dat_i[10] *577:9 4.34 
2 *577:9 *577:11 94.98 
3 *577:11 *577:45 49.2037 
4 *577:45 *803:wbs_dat_i[10] 1.0725 
*END

*D_NET *578 0.192034
*CONN
*P wbs_dat_i[11] I
*I *803:wbs_dat_i[11] I *D memory_macro
*CAP
1 wbs_dat_i[11] 0.000868333
2 *803:wbs_dat_i[11] 0.000108
3 *578:11 0.0110469
4 *578:9 0.0118072
5 *578:9 wbs_dat_o[11] 0
6 *578:9 *641:27 0
7 *578:11 wbs_dat_o[9] 0.000185579
8 *578:11 *803:wbs_dat_i[7] 0.000197095
9 *578:11 *581:11 0.0026465
10 *578:11 *593:25 0.0468625
11 *578:11 *601:35 0.0274409
12 *578:11 *625:9 0.00181371
13 *578:11 *633:9 0.00127037
14 *578:11 *635:31 0.00230687
15 *578:11 *639:9 0.0116299
16 *556:11 *578:11 0.0668526
17 *562:25 *578:11 0.000256266
18 *565:19 *578:11 0.0058104
19 *577:45 *578:11 0.00093093
*RES
1 wbs_dat_i[11] *578:9 12.335 
2 *578:9 *578:11 731.85 
3 *578:11 *803:wbs_dat_i[11] 3.455 
*END

*D_NET *579 0.171568
*CONN
*P wbs_dat_i[12] I
*I *803:wbs_dat_i[12] I *D memory_macro
*CAP
1 wbs_dat_i[12] 0.000545668
2 *803:wbs_dat_i[12] 0.0012665
3 *579:33 0.0474473
4 *579:11 0.0497826
5 *579:9 0.0041475
6 *803:wbs_dat_i[12] *581:11 0.00689156
7 *803:wbs_dat_i[12] *593:25 0.00153037
8 *803:wbs_dat_i[12] *611:31 0.000325612
9 *803:wbs_dat_i[12] *622:17 0.00350385
10 *579:11 *803:wbs_sel_i[2] 0.00020516
11 *579:11 *580:11 0.00161947
12 *579:11 *584:17 0.000152088
13 *579:11 *635:33 0.0109319
14 *579:33 *585:11 0.00051469
15 *579:33 *586:13 0.000519186
16 *579:33 *611:31 0
17 *579:33 *633:23 0.000202064
18 *803:wbs_adr_i[12] *803:wbs_dat_i[12] 0.00052532
19 *569:11 *579:11 0
20 *577:45 *579:33 0.0414575
*RES
1 wbs_dat_i[12] *579:9 7.745 
2 *579:9 *579:11 99.12 
3 *579:11 *579:33 44.4533 
4 *579:33 *803:wbs_dat_i[12] 12.2298 
*END

*D_NET *580 0.175431
*CONN
*P wbs_dat_i[13] I
*I *803:wbs_dat_i[13] I *D memory_macro
*CAP
1 wbs_dat_i[13] 0.000515579
2 *803:wbs_dat_i[13] 0.000409041
3 *580:11 0.0240425
4 *580:9 0.024149
5 *580:11 wbs_dat_o[29] 0.00020217
6 *580:11 *803:wbs_dat_i[4] 8.78121e-05
7 *580:11 *803:wbs_dat_i[5] 2.70838e-05
8 *580:11 *803:wbs_dat_i[7] 0.000302525
9 *580:11 *803:wbs_sel_i[2] 0.0189082
10 *580:11 *582:29 0.000319704
11 *580:11 *584:17 0.000788333
12 *580:11 *588:11 0.00182526
13 *580:11 *588:33 0.000282899
14 *580:11 *589:25 0.000306305
15 *580:11 *590:17 0.0121806
16 *580:11 *593:23 0.0102212
17 *580:11 *595:25 7.94016e-06
18 *580:11 *597:25 4.15225e-05
19 *580:11 *604:13 0.00578383
20 *580:11 *604:29 0.00218085
21 *580:11 *627:9 0.0186297
22 *580:11 *638:9 0.000360938
23 *803:wbs_adr_i[10] *580:11 0.000319704
24 *803:wbs_adr_i[15] *580:11 0.00710747
25 *803:wbs_adr_i[20] *580:11 0.0179579
26 *547:25 *580:11 0.000322462
27 *553:17 *580:11 0.00164734
28 *560:11 *580:11 0.0247169
29 *570:19 *580:11 0.000167345
30 *579:11 *580:11 0.00161947
*RES
1 wbs_dat_i[13] *580:9 6.2825 
2 *580:9 *580:11 138.771 
3 *580:11 *803:wbs_dat_i[13] 6.1625 
*END

*D_NET *581 0.243244
*CONN
*P wbs_dat_i[14] I
*I *803:wbs_dat_i[14] I *D memory_macro
*CAP
1 wbs_dat_i[14] 0.000715087
2 *803:wbs_dat_i[14] 0.000151454
3 *581:11 0.0183437
4 *581:9 0.0189073
5 *581:9 wbs_dat_o[0] 0
6 *581:11 *803:wbs_dat_i[7] 0.000937558
7 *581:11 *803:wbs_dat_i[8] 4.60198e-05
8 *581:11 *803:wbs_dat_i[9] 8.59615e-05
9 *581:11 *803:wbs_sel_i[0] 0.00105739
10 *581:11 *803:wbs_sel_i[3] 0.00012921
11 *581:11 *583:11 0.09574
12 *581:11 *593:25 0.00217325
13 *581:11 *609:15 2.70838e-05
14 *581:11 *611:31 0.00126864
15 *581:11 *612:15 0.000896831
16 *581:11 *622:17 0.00645883
17 *581:11 *635:31 0.0111776
18 *581:11 *636:31 0.00012921
19 *581:11 *637:15 8.59615e-05
20 *581:11 *639:9 0.0305607
21 *803:wbs_adr_i[11] *581:11 0.000238644
22 *803:wbs_adr_i[13] *581:11 5.05905e-05
23 *803:wbs_adr_i[14] *581:11 5.05905e-05
24 *803:wbs_adr_i[6] *581:11 4.60198e-05
25 *803:wbs_adr_i[7] *581:11 0.000485379
26 *803:wbs_dat_i[12] *581:11 0.00689156
27 *554:13 *581:11 0.000422421
28 *556:11 *581:11 0.0204741
29 *557:11 *581:11 0.0184721
30 *562:25 *581:11 0.00140395
31 *565:19 *581:11 0.000592957
32 *577:45 *581:11 0.00257744
33 *578:11 *581:11 0.0026465
*RES
1 wbs_dat_i[14] *581:9 9.5075 
2 *581:9 *581:11 146.346 
3 *581:11 *803:wbs_dat_i[14] 2.5925 
*END

*D_NET *582 0.188197
*CONN
*P wbs_dat_i[15] I
*I *803:wbs_dat_i[15] I *D memory_macro
*CAP
1 wbs_dat_i[15] 0.000376745
2 *803:wbs_dat_i[15] 0.00627389
3 *582:29 0.0805234
4 *582:11 0.0756947
5 *582:9 0.00182193
6 *803:wbs_dat_i[15] *583:11 2.0104e-05
7 *803:wbs_dat_i[15] *614:15 0
8 *803:wbs_dat_i[15] *622:17 4.21127e-05
9 *582:11 *610:9 0.00172381
10 *582:11 *613:9 0.00279094
11 *582:11 *617:9 0.00353683
12 *582:29 *604:13 0.000559135
13 *582:29 *635:31 9.52587e-05
14 *803:wbs_adr_i[20] *582:29 0.000136819
15 *544:11 *582:11 0.00212018
16 *553:17 *582:29 0
17 *556:9 *582:29 2.66977e-05
18 *572:37 *582:29 0.00904222
19 *577:11 *582:11 0.00309218
20 *580:11 *582:29 0.000319704
*RES
1 wbs_dat_i[15] *582:9 4.94 
2 *582:9 *582:11 74.625 
3 *582:11 *582:29 37.9236 
4 *582:29 *803:wbs_dat_i[15] 18.2846 
*END

*D_NET *583 0.294288
*CONN
*P wbs_dat_i[16] I
*I *803:wbs_dat_i[16] I *D memory_macro
*CAP
1 wbs_dat_i[16] 0.000708602
2 *803:wbs_dat_i[16] 0.000188691
3 *583:11 0.0177892
4 *583:9 0.0183091
5 *583:9 *630:19 3.06213e-05
6 *583:11 *585:11 0.10574
7 *583:11 *587:13 0.000845544
8 *583:11 *614:15 0.000732008
9 *583:11 *622:17 0.00363283
10 *583:11 *625:9 0.000856053
11 *803:wbs_adr_i[16] *583:11 2.0104e-05
12 *803:wbs_dat_i[15] *583:11 2.0104e-05
13 *554:13 *583:11 0.000693057
14 *556:11 *583:11 0.00174807
15 *557:11 *583:11 0.00189622
16 *558:11 *583:11 0.0228727
17 *559:11 *583:11 0.0205931
18 *565:19 *583:11 0.00187138
19 *581:11 *583:11 0.09574
*RES
1 wbs_dat_i[16] *583:9 9.5075 
2 *583:9 *583:11 161.67 
3 *583:11 *803:wbs_dat_i[16] 3.1025 
*END

*D_NET *584 0.329296
*CONN
*P wbs_dat_i[17] I
*I *803:wbs_dat_i[17] I *D memory_macro
*CAP
1 wbs_dat_i[17] 0.0106043
2 *803:wbs_dat_i[17] 0.0098806
3 *584:19 0.0415454
4 *584:17 0.0422691
5 *803:wbs_dat_i[17] *585:11 0.000306556
6 *803:wbs_dat_i[17] *593:25 0.000204094
7 *803:wbs_dat_i[17] *622:17 0.000922062
8 *803:wbs_dat_i[17] *625:9 0.00021503
9 *584:17 wbs_dat_o[16] 0.000302224
10 *584:17 *604:13 0.000457773
11 *584:17 *635:33 0.000152088
12 *584:19 *803:cpu_mem_addr[6] 4.21127e-05
13 *584:19 *803:cpu_mem_wdata[10] 3.35743e-05
14 *584:19 *803:cpu_mem_wdata[11] 0.00059812
15 *584:19 *803:cpu_mem_wdata[12] 0.000292826
16 *584:19 *803:cpu_mem_wdata[13] 0.000735553
17 *584:19 *803:cpu_mem_wdata[22] 0.000505762
18 *584:19 *803:cpu_mem_wdata[3] 0.000206697
19 *584:19 *803:cpu_mem_wdata[8] 0.000774727
20 *584:19 *803:cpu_mem_wdata[9] 0.00588227
21 *584:19 *588:33 3.08918e-05
22 *584:19 *588:35 0.0204487
23 *584:19 *681:27 0.048892
24 *584:19 *682:14 0.000316824
25 *584:19 *736:24 0.000180788
26 *584:19 *737:26 0.000703294
27 *584:19 *738:21 9.62527e-05
28 *584:19 *740:8 4.21127e-05
29 *529:28 *584:19 0.0229485
30 *550:19 *584:19 0.000251727
31 *551:17 *584:17 0
32 *551:19 *584:19 0.108981
33 *562:25 *584:19 8.36497e-05
34 *562:27 *584:19 0.00944887
35 *579:11 *584:17 0.000152088
36 *580:11 *584:17 0.000788333
*RES
1 wbs_dat_i[17] *584:17 34.6004 
2 *584:17 *584:19 169.128 
3 *584:19 *803:wbs_dat_i[17] 29.4271 
*END

*D_NET *585 0.337415
*CONN
*P wbs_dat_i[18] I
*I *803:wbs_dat_i[18] I *D memory_macro
*CAP
1 wbs_dat_i[18] 0.000758386
2 *803:wbs_dat_i[18] 0.000222549
3 *585:11 0.019569
4 *585:9 0.0201048
5 *585:9 wbs_dat_o[18] 0
6 *585:9 *803:wbs_dat_i[1] 3.0549e-05
7 *585:11 *803:wbs_dat_i[2] 0.000579584
8 *585:11 *586:13 0.000397703
9 *585:11 *586:15 0.116194
10 *585:11 *587:13 7.94031e-05
11 *585:11 *615:15 2.8439e-05
12 *585:11 *616:11 0.00065621
13 *585:11 *622:9 0.000604282
14 *585:11 *622:17 0.00123766
15 *585:11 *633:17 0.000113818
16 *803:wbs_adr_i[17] *585:11 1.52249e-05
17 *803:wbs_adr_i[18] *585:11 0.000565309
18 *803:wbs_adr_i[20] *585:11 0.0224736
19 *803:wbs_dat_i[17] *585:11 0.000306556
20 *561:11 *585:11 0.0249563
21 *563:11 *585:11 0.0222663
22 *579:33 *585:11 0.00051469
23 *583:11 *585:11 0.10574
*RES
1 wbs_dat_i[18] *585:9 9.1775 
2 *585:9 *585:11 176.411 
3 *585:11 *803:wbs_dat_i[18] 3.6125 
*END

*D_NET *586 0.361138
*CONN
*P wbs_dat_i[19] I
*I *803:wbs_dat_i[19] I *D memory_macro
*CAP
1 wbs_dat_i[19] 0.00100966
2 *803:wbs_dat_i[19] 0.000259786
3 *586:15 0.0205397
4 *586:13 0.0212896
5 *586:13 *803:wbs_dat_i[2] 0.00125225
6 *586:15 *803:wbs_dat_i[2] 0.00346977
7 *586:15 *803:wbs_sel_i[2] 0.000574338
8 *586:15 *622:9 0
9 *586:15 *633:17 0.00145335
10 *803:wbs_adr_i[19] *586:15 2.08086e-05
11 *803:wbs_adr_i[20] *586:15 0.0266283
12 *560:11 *586:15 0.115586
13 *564:11 *586:15 0.0255003
14 *566:11 *586:15 0.0230353
15 *568:11 *586:13 0.000113818
16 *568:11 *586:15 0.00145776
17 *574:11 *586:13 0.000246493
18 *574:11 *586:15 0.00159041
19 *579:33 *586:13 0.000519186
20 *585:11 *586:13 0.000397703
21 *585:11 *586:15 0.116194
*RES
1 wbs_dat_i[19] *586:13 10.155 
2 *586:13 *586:15 182.15 
3 *586:15 *803:wbs_dat_i[19] 4.1225 
*END

*D_NET *587 0.0670831
*CONN
*P wbs_dat_i[1] I
*I *803:wbs_dat_i[1] I *D memory_macro
*CAP
1 wbs_dat_i[1] 0.00581941
2 *803:wbs_dat_i[1] 0.000273804
3 *587:13 0.00609321
4 *587:13 wbs_dat_o[1] 0
5 *587:13 *803:wbs_dat_i[2] 0.0173636
6 *587:13 *641:27 0
7 *803:wbs_dat_i[0] *587:13 0.000755926
8 *554:13 *587:13 0.0252444
9 *565:17 *587:13 0.00211438
10 *568:11 *587:13 0.00505976
11 *569:11 *587:13 0.000479384
12 *574:11 *587:13 0.00292367
13 *583:11 *587:13 0.000845544
14 *585:9 *803:wbs_dat_i[1] 3.0549e-05
15 *585:11 *587:13 7.94031e-05
*RES
1 wbs_dat_i[1] *587:13 48.7339 
2 *587:13 *803:wbs_dat_i[1] 4.1325 
*END

*D_NET *588 0.267849
*CONN
*P wbs_dat_i[20] I
*I *803:wbs_dat_i[20] I *D memory_macro
*CAP
1 wbs_dat_i[20] 0.000489331
2 *803:wbs_dat_i[20] 0.00996612
3 *588:35 0.0474323
4 *588:33 0.0481571
5 *588:11 0.0142734
6 *588:9 0.00407181
7 *803:wbs_dat_i[20] *595:27 1.11399e-05
8 *803:wbs_dat_i[20] *622:9 4.21127e-05
9 *803:wbs_dat_i[20] *650:6 0.000349889
10 *803:wbs_dat_i[20] *723:9 9.17476e-05
11 *588:9 wbs_dat_o[7] 0
12 *588:11 *589:11 0
13 *588:11 *590:17 0.00104506
14 *588:11 *635:33 0.00087627
15 *588:11 *643:11 0
16 *588:33 *803:wbs_dat_i[9] 0
17 *588:33 *803:wbs_sel_i[2] 0.000278402
18 *588:33 *604:29 0
19 *588:35 *650:6 0.0030256
20 *588:35 *681:27 0.000321648
21 *588:35 *682:14 0.000544083
22 *588:35 *786:22 0
23 *529:28 *588:35 0.00160985
24 *561:9 *588:33 8.33491e-05
25 *562:27 *588:35 0.111703
26 *569:11 *588:11 0
27 *570:19 *588:11 0.000889807
28 *580:11 *588:11 0.00182526
29 *580:11 *588:33 0.000282899
30 *584:19 *588:33 3.08918e-05
31 *584:19 *588:35 0.0204487
*RES
1 wbs_dat_i[20] *588:9 7.4 
2 *588:9 *588:11 75.66 
3 *588:11 *588:33 35.6623 
4 *588:33 *588:35 1052.7 
5 *588:35 *803:wbs_dat_i[20] 31.3527 
*END

*D_NET *589 0.245566
*CONN
*P wbs_dat_i[21] I
*I *803:wbs_dat_i[21] I *D memory_macro
*CAP
1 wbs_dat_i[21] 0.000319339
2 *803:wbs_dat_i[21] 0.000451001
3 *589:27 0.0378753
4 *589:25 0.038352
5 *589:11 0.00408562
6 *589:9 0.00347728
7 *589:11 wbs_dat_o[12] 0.000126737
8 *589:11 *590:17 0
9 *589:11 *613:9 0.0119797
10 *589:11 *635:31 0.000537867
11 *589:11 *636:33 0.000198516
12 *589:11 *638:9 0.00116034
13 *589:11 *643:11 0.00422084
14 *589:25 wbs_dat_o[29] 0
15 *589:25 *590:17 0.00228383
16 *589:25 *597:25 0
17 *589:27 *590:17 0.116106
18 *589:27 *613:9 0
19 *589:27 *617:9 0
20 *589:27 *621:9 0
21 *589:27 *627:9 0.0190474
22 *803:wbs_adr_i[15] *589:27 0.00498695
23 *567:9 *589:25 5.12981e-05
24 *570:19 *589:25 0
25 *580:11 *589:25 0.000306305
26 *588:11 *589:11 0
*RES
1 wbs_dat_i[21] *589:9 5.36 
2 *589:9 *589:11 108.78 
3 *589:11 *589:25 31.31 
4 *589:25 *589:27 1049.59 
5 *589:27 *803:wbs_dat_i[21] 8.81 
*END

*D_NET *590 0.239391
*CONN
*P wbs_dat_i[22] I
*I *803:wbs_dat_i[22] I *D memory_macro
*CAP
1 wbs_dat_i[22] 0.00201281
2 *803:wbs_dat_i[22] 0.000427809
3 *590:17 0.0452925
4 *590:15 0.0468775
5 *590:15 wbs_dat_o[20] 0.00213942
6 *590:15 *803:wbs_dat_i[7] 0.00034629
7 *590:15 *602:11 0.00104049
8 *590:15 *605:11 0.000864972
9 *590:17 wbs_dat_o[29] 0.000353049
10 *590:17 *591:11 0
11 *590:17 *613:9 0
12 *590:17 *621:9 0
13 *590:17 *627:9 0.00321355
14 *803:wbs_adr_i[15] *590:17 0.00497995
15 *549:11 *590:15 0.000226671
16 *570:19 *590:17 0
17 *573:11 *590:17 0
18 *574:11 *590:17 0
19 *580:11 *590:17 0.0121806
20 *588:11 *590:17 0.00104506
21 *589:11 *590:17 0
22 *589:25 *590:17 0.00228383
23 *589:27 *590:17 0.116106
*RES
1 wbs_dat_i[22] *590:15 14.8283 
2 *590:15 *590:17 1190.35 
3 *590:17 *803:wbs_dat_i[22] 8.555 
*END

*D_NET *591 0.324684
*CONN
*P wbs_dat_i[23] I
*I *803:wbs_dat_i[23] I *D memory_macro
*CAP
1 wbs_dat_i[23] 0.000201424
2 *803:wbs_dat_i[23] 0.000627845
3 *591:11 0.0198377
4 *591:9 0.0194113
5 *591:11 *606:11 0.000266195
6 *591:11 *610:9 0.0140527
7 *591:11 *621:9 0.129734
8 *591:11 *623:9 0.139673
9 *591:11 *627:9 0.000879204
10 *549:29 *591:9 0
11 *590:17 *591:11 0
*RES
1 wbs_dat_i[23] *591:9 4.505 
2 *591:9 *591:11 1268.67 
3 *591:11 *803:wbs_dat_i[23] 12.35 
*END

*D_NET *592 0.349435
*CONN
*P wbs_dat_i[24] I
*I *803:wbs_dat_i[24] I *D memory_macro
*CAP
1 wbs_dat_i[24] 0.000162028
2 *803:wbs_dat_i[24] 0.000604504
3 *592:11 0.0191108
4 *592:9 0.0186683
5 *592:11 *607:15 0.000221495
6 *592:11 *618:9 0.0250635
7 *592:11 *623:9 0.14093
8 *592:11 *624:9 0.144674
*RES
1 wbs_dat_i[24] *592:9 3.83 
2 *592:9 *592:11 1312.83 
3 *592:11 *803:wbs_dat_i[24] 11.615 
*END

*D_NET *593 0.27764
*CONN
*P wbs_dat_i[25] I
*I *803:wbs_dat_i[25] I *D memory_macro
*CAP
1 wbs_dat_i[25] 0.00426406
2 *803:wbs_dat_i[25] 7.77251e-05
3 *593:25 0.0255543
4 *593:23 0.0297407
5 *593:23 wbs_dat_o[20] 0.00117144
6 *593:23 wbs_dat_o[25] 0.00044491
7 *593:23 wbs_dat_o[27] 0.000203836
8 *593:23 *602:11 0.00144611
9 *593:23 *626:9 0.00162698
10 *593:25 *803:wbs_dat_i[7] 0.00021503
11 *593:25 *612:15 0.000322399
12 *593:25 *614:15 0.000373101
13 *593:25 *616:11 0.000449705
14 *593:25 *622:9 0.00648397
15 *593:25 *622:17 0.00306597
16 *593:25 *625:9 0.0789813
17 *593:25 *635:31 0.00251679
18 *593:25 *639:9 0.00525214
19 *803:wbs_adr_i[18] *593:25 0.000390001
20 *803:wbs_adr_i[20] *593:23 0.00217792
21 *803:wbs_adr_i[4] *593:23 7.05152e-05
22 *803:wbs_adr_i[7] *593:25 0.000104399
23 *803:wbs_dat_i[12] *593:25 0.00153037
24 *803:wbs_dat_i[17] *593:25 0.000204094
25 *556:11 *593:25 0.0370935
26 *557:11 *593:25 0.00267166
27 *558:11 *593:25 0.00219666
28 *559:11 *593:25 0.00082588
29 *560:11 *593:23 0.00585552
30 *561:11 *593:25 0
31 *570:19 *593:23 0.00221855
32 *577:45 *593:25 0.000853282
33 *578:11 *593:25 0.0468625
34 *580:11 *593:23 0.0102212
35 *581:11 *593:25 0.00217325
*RES
1 wbs_dat_i[25] *593:23 36.3009 
2 *593:23 *593:25 1235.55 
3 *593:25 *803:wbs_dat_i[25] 3.2 
*END

*D_NET *594 0.367838
*CONN
*P wbs_dat_i[26] I
*I *803:wbs_dat_i[26] I *D memory_macro
*CAP
1 wbs_dat_i[26] 0.000198925
2 *803:wbs_dat_i[26] 0.00155789
3 *594:11 0.0220231
4 *594:9 0.0206642
5 *594:11 wbs_dat_o[20] 0.00107306
6 *594:11 wbs_dat_o[25] 0.000846443
7 *594:11 wbs_dat_o[31] 0.000252022
8 *594:11 *596:11 0.150205
9 *594:11 *602:11 4.90794e-05
10 *594:11 *618:9 0.000146106
11 *594:11 *620:9 0.0242694
12 *594:11 *624:9 0.144361
13 *594:11 *626:9 0.00192469
14 *567:11 *803:wbs_dat_i[26] 0.000267345
*RES
1 wbs_dat_i[26] *594:9 3.665 
2 *594:9 *594:11 1383.56 
3 *594:11 *803:wbs_dat_i[26] 34.62 
*END

*D_NET *595 0.295489
*CONN
*P wbs_dat_i[27] I
*I *803:wbs_dat_i[27] I *D memory_macro
*CAP
1 wbs_dat_i[27] 0.0699796
2 *803:wbs_dat_i[27] 0.000221419
3 *595:27 0.020369
4 *595:25 0.0901271
5 *595:25 *638:9 4.00045e-05
6 *595:27 *622:9 0
7 *595:27 *627:9 0
8 *595:27 *629:13 0
9 *803:wbs_adr_i[20] *595:25 0.0317594
10 *803:wbs_adr_i[27] *595:27 0
11 *803:wbs_dat_i[20] *595:27 1.11399e-05
12 *558:11 *595:27 0.0026605
13 *559:11 *595:27 0.00480096
14 *560:11 *595:27 0.0329963
15 *561:11 *595:27 0.00781001
16 *563:11 *595:27 0.0103596
17 *564:11 *595:27 0.0112319
18 *566:11 *595:27 0.010295
19 *567:11 *595:27 0.00281944
20 *580:11 *595:25 7.94016e-06
*RES
1 wbs_dat_i[27] *595:25 24.7018 
2 *595:25 *595:27 71.6769 
3 *595:27 *803:wbs_dat_i[27] 4.1225 
*END

*D_NET *596 0.398463
*CONN
*P wbs_dat_i[28] I
*I *803:wbs_dat_i[28] I *D memory_macro
*CAP
1 wbs_dat_i[28] 0.000114669
2 *803:wbs_dat_i[28] 0.00141806
3 *596:11 0.0238134
4 *596:9 0.02251
5 *596:11 *602:11 0.000183504
6 *596:11 *626:9 0.0372275
7 *596:11 *628:13 0.16277
8 *567:11 *803:wbs_dat_i[28] 0.000220852
9 *594:11 *596:11 0.150205
*RES
1 wbs_dat_i[28] *596:9 2.975 
2 *596:9 *596:11 1476.36 
3 *596:11 *803:wbs_dat_i[28] 32.115 
*END

*D_NET *597 0.336368
*CONN
*P wbs_dat_i[29] I
*I *803:wbs_dat_i[29] I *D memory_macro
*CAP
1 wbs_dat_i[29] 0.0668162
2 *803:wbs_dat_i[29] 0.000923204
3 *597:27 0.0307616
4 *597:25 0.0966546
5 *803:wbs_dat_i[29] *629:13 0.000828975
6 *803:wbs_dat_i[29] *632:13 0.000664601
7 *597:25 *803:wbs_dat_i[4] 0.00170172
8 *597:25 *803:wbs_dat_i[5] 0.00445951
9 *597:25 *600:27 0.0064729
10 *597:25 *627:9 4.7371e-05
11 *597:27 *629:13 0.0748591
12 *547:27 *597:25 0.0145304
13 *548:19 *597:25 0.0161375
14 *553:19 *597:25 0.0214689
15 *553:19 *597:27 0
16 *580:11 *597:25 4.15225e-05
17 *589:25 *597:25 0
*RES
1 wbs_dat_i[29] *597:25 24.457 
2 *597:25 *597:27 114.241 
3 *597:27 *803:wbs_dat_i[29] 4.69843 
*END

*D_NET *598 0.084993
*CONN
*P wbs_dat_i[2] I
*I *803:wbs_dat_i[2] I *D memory_macro
*CAP
1 wbs_dat_i[2] 0.00221077
2 *803:wbs_dat_i[2] 0.00531748
3 *598:17 0.00752825
4 *803:wbs_dat_i[2] *803:wbs_sel_i[2] 0.0205019
5 *803:wbs_dat_i[2] *803:wbs_sel_i[3] 0.000118687
6 *598:17 *601:33 0.00110262
7 *598:17 *604:13 0.000939159
8 *598:17 *641:27 0.00034822
9 *598:17 *642:21 0.00604877
10 *598:17 *643:11 0.000361877
11 *803:wbs_adr_i[20] *803:wbs_dat_i[2] 0.000990753
12 *803:wbs_dat_i[0] *803:wbs_dat_i[2] 0.00318302
13 *541:39 *598:17 4.21127e-05
14 *565:17 *598:17 0.00221336
15 *568:11 *803:wbs_dat_i[2] 0.00100605
16 *569:11 *803:wbs_dat_i[2] 0.00501915
17 *573:11 *803:wbs_dat_i[2] 0.00511355
18 *574:11 *803:wbs_dat_i[2] 0.00028207
19 *585:11 *803:wbs_dat_i[2] 0.000579584
20 *586:13 *803:wbs_dat_i[2] 0.00125225
21 *586:15 *803:wbs_dat_i[2] 0.00346977
22 *587:13 *803:wbs_dat_i[2] 0.0173636
*RES
1 wbs_dat_i[2] *598:17 20.2736 
2 *598:17 *803:wbs_dat_i[2] 44.1026 
*END

*D_NET *599 0.387027
*CONN
*P wbs_dat_i[30] I
*I *803:wbs_dat_i[30] I *D memory_macro
*CAP
1 wbs_dat_i[30] 0.000208076
2 *803:wbs_dat_i[30] 0.00153238
3 *599:11 0.0239668
4 *599:9 0.0226424
5 *599:11 wbs_dat_o[20] 0.000479384
6 *599:11 *602:11 0.000270854
7 *599:11 *626:9 0.000245023
8 *599:11 *628:13 0.164109
9 *599:11 *631:9 0.171816
10 *566:11 *803:wbs_dat_i[30] 0.000467962
11 *567:11 *803:wbs_dat_i[30] 0.00128897
*RES
1 wbs_dat_i[30] *599:9 3.665 
2 *599:9 *599:11 1557.09 
3 *599:11 *803:wbs_dat_i[30] 40.56 
*END

*D_NET *600 0.247456
*CONN
*P wbs_dat_i[31] I
*I *803:wbs_dat_i[31] I *D memory_macro
*CAP
1 wbs_dat_i[31] 0.0422092
2 *803:wbs_dat_i[31] 0.00101863
3 *600:27 0.0641961
4 *600:25 0.105387
5 *600:25 wbs_dat_o[20] 2.10582e-05
6 *600:25 *803:wbs_dat_i[4] 0
7 *600:25 *611:31 0.0117557
8 *600:25 *618:9 0.000118636
9 *600:25 *626:9 0.000123132
10 *600:25 *636:31 7.37663e-05
11 *803:wbs_adr_i[10] *600:25 0.00644823
12 *548:19 *600:27 0.00211606
13 *553:19 *600:27 0.00751596
14 *597:25 *600:27 0.0064729
*RES
1 wbs_dat_i[31] *600:25 24.9219 
2 *600:25 *600:27 179.033 
3 *600:27 *803:wbs_dat_i[31] 3.78137 
*END

*D_NET *601 0.0777912
*CONN
*P wbs_dat_i[3] I
*I *803:wbs_dat_i[3] I *D memory_macro
*CAP
1 wbs_dat_i[3] 0.00363747
2 *803:wbs_dat_i[3] 9.29641e-05
3 *601:35 0.00822623
4 *601:33 0.0117707
5 *601:33 wbs_dat_o[1] 0.000590287
6 *601:33 *604:13 0.000502579
7 *601:33 *642:21 7.86938e-05
8 *601:35 wbs_dat_o[9] 0.00061553
9 *601:35 *630:13 0.00465277
10 *601:35 *633:9 0.00698227
11 *601:35 *639:9 0.00537302
12 *803:wbs_adr_i[0] *601:35 0.00083088
13 *803:wbs_adr_i[2] *601:35 0.00154674
14 *803:wbs_cyc_i *601:33 0
15 *803:wbs_dat_i[0] *601:33 0.000748986
16 *541:39 *601:33 0
17 *562:25 *601:35 0.000279586
18 *565:17 *601:33 0.000986701
19 *565:19 *601:35 0.00233224
20 *578:11 *601:35 0.0274409
21 *598:17 *601:33 0.00110262
*RES
1 wbs_dat_i[3] *601:33 17.8439 
2 *601:33 *601:35 311.64 
3 *601:35 *803:wbs_dat_i[3] 3.2 
*END

*D_NET *602 0.089159
*CONN
*P wbs_dat_i[4] I
*I *803:wbs_dat_i[4] I *D memory_macro
*CAP
1 wbs_dat_i[4] 0.000118453
2 *803:wbs_dat_i[4] 0.00595894
3 *602:11 0.0192485
4 *602:9 0.013408
5 *803:wbs_dat_i[4] wbs_dat_o[30] 1.83975e-05
6 *803:wbs_dat_i[4] *627:9 0.00011761
7 *602:11 wbs_dat_o[20] 0.00179027
8 *602:11 wbs_dat_o[25] 0.00348942
9 *602:11 wbs_dat_o[7] 0.00507131
10 *602:11 *803:wbs_stb_i 0.00098722
11 *602:11 *605:11 0.00832551
12 *602:11 *607:15 0.000399879
13 *602:11 *624:9 0
14 *602:11 *626:9 0.0018367
15 *602:11 *628:13 0.00102814
16 *602:11 *631:9 4.77719e-05
17 *602:11 *633:25 0.00183078
18 *547:27 *803:wbs_dat_i[4] 0.00771682
19 *549:11 *602:11 0.0118894
20 *560:11 *803:wbs_dat_i[4] 8.1472e-05
21 *571:19 *602:11 0.00101485
22 *580:11 *803:wbs_dat_i[4] 8.78121e-05
23 *590:15 *602:11 0.00104049
24 *593:23 *602:11 0.00144611
25 *594:11 *602:11 4.90794e-05
26 *596:11 *602:11 0.000183504
27 *597:25 *803:wbs_dat_i[4] 0.00170172
28 *599:11 *602:11 0.000270854
29 *600:25 *803:wbs_dat_i[4] 0
*RES
1 wbs_dat_i[4] *602:9 3.665 
2 *602:9 *602:11 350.28 
3 *602:11 *803:wbs_dat_i[4] 29.6743 
*END

*D_NET *603 0.0837884
*CONN
*P wbs_dat_i[5] I
*I *803:wbs_dat_i[5] I *D memory_macro
*CAP
1 wbs_dat_i[5] 0.0360078
2 *803:wbs_dat_i[5] 0.0360078
3 *803:wbs_dat_i[5] wbs_dat_o[1] 0.00389162
4 *803:wbs_dat_i[5] *803:wbs_stb_i 1.17533e-05
5 *803:wbs_dat_i[5] *604:29 0.000165364
6 wbs_ack_o *803:wbs_dat_i[5] 6.32125e-05
7 *803:wbs_adr_i[20] *803:wbs_dat_i[5] 0.00280411
8 *803:wbs_dat_i[0] *803:wbs_dat_i[5] 8.26058e-05
9 *547:27 *803:wbs_dat_i[5] 0.000225528
10 *560:11 *803:wbs_dat_i[5] 4.21127e-05
11 *580:11 *803:wbs_dat_i[5] 2.70838e-05
12 *597:25 *803:wbs_dat_i[5] 0.00445951
*RES
1 wbs_dat_i[5] *803:wbs_dat_i[5] 22.2238 
*END

*D_NET *604 0.140728
*CONN
*P wbs_dat_i[6] I
*I *803:wbs_dat_i[6] I *D memory_macro
*CAP
1 wbs_dat_i[6] 0.000280083
2 *803:wbs_dat_i[6] 0.000373244
3 *604:29 0.0298969
4 *604:13 0.0369838
5 *604:9 0.00774017
6 *604:13 wbs_dat_o[12] 0.00684196
7 *604:13 *803:wbs_dat_i[7] 0.000546318
8 *604:13 *803:wbs_dat_i[9] 7.86938e-05
9 *604:13 *803:wbs_sel_i[2] 0.000344045
10 *604:13 *635:31 0.00610043
11 *604:13 *635:33 0.00300229
12 *604:13 *636:33 0.00126262
13 *604:13 *638:9 0.00131771
14 *604:13 *642:21 0.00318399
15 *604:29 wbs_dat_o[13] 0.0165214
16 *803:wbs_adr_i[10] *604:13 0.000559135
17 *803:wbs_adr_i[20] *604:13 0.00131468
18 *803:wbs_adr_i[20] *604:29 0.00083809
19 *803:wbs_dat_i[0] *604:13 0.00372472
20 *803:wbs_dat_i[5] *604:29 0.000165364
21 *547:25 *604:13 0.00114492
22 *553:17 *604:13 0.00291248
23 *560:11 *604:29 0.00377497
24 *573:11 *604:29 0.000878821
25 *577:45 *604:13 0.000518053
26 *580:11 *604:13 0.00578383
27 *580:11 *604:29 0.00218085
28 *582:29 *604:13 0.000559135
29 *584:17 *604:13 0.000457773
30 *588:33 *604:29 0
31 *598:17 *604:13 0.000939159
32 *601:33 *604:13 0.000502579
*RES
1 wbs_dat_i[6] *604:9 4.7525 
2 *604:9 *604:13 45.9569 
3 *604:13 *604:29 46.8151 
4 *604:29 *803:wbs_dat_i[6] 4.6425 
*END

*D_NET *605 0.143023
*CONN
*P wbs_dat_i[7] I
*I *803:wbs_dat_i[7] I *D memory_macro
*CAP
1 wbs_dat_i[7] 6.90751e-05
2 *803:wbs_dat_i[7] 0.0216658
3 *605:11 0.0253415
4 *605:9 0.00374474
5 *803:wbs_dat_i[7] *803:wbs_dat_i[8] 0.0228644
6 *803:wbs_dat_i[7] *803:wbs_dat_i[9] 0
7 *803:wbs_dat_i[7] *635:31 0.000233543
8 *803:wbs_dat_i[7] *638:27 0.00020519
9 *803:wbs_dat_i[7] *639:9 0.000933068
10 *605:9 *803:wbs_stb_i 4.61701e-06
11 *605:11 wbs_dat_o[20] 0.000544213
12 *605:11 wbs_dat_o[7] 0.00354942
13 *605:11 *607:15 0.00440937
14 *605:11 *633:25 0.0184041
15 *803:wbs_adr_i[10] *803:wbs_dat_i[7] 0.0159445
16 *549:11 *605:11 0.0118843
17 *560:9 *803:wbs_dat_i[7] 0
18 *571:19 *605:11 0.00100557
19 *572:37 *803:wbs_dat_i[7] 0.000484125
20 *578:11 *803:wbs_dat_i[7] 0.000197095
21 *580:11 *803:wbs_dat_i[7] 0.000302525
22 *581:11 *803:wbs_dat_i[7] 0.000937558
23 *590:15 *803:wbs_dat_i[7] 0.00034629
24 *590:15 *605:11 0.000864972
25 *593:25 *803:wbs_dat_i[7] 0.00021503
26 *602:11 *605:11 0.00832551
27 *604:13 *803:wbs_dat_i[7] 0.000546318
*RES
1 wbs_dat_i[7] *605:9 2.975 
2 *605:9 *605:11 233.325 
3 *605:11 *803:wbs_dat_i[7] 35.6032 
*END

*D_NET *606 0.147721
*CONN
*P wbs_dat_i[8] I
*I *803:wbs_dat_i[8] I *D memory_macro
*CAP
1 wbs_dat_i[8] 0.000153991
2 *803:wbs_dat_i[8] 0.0349607
3 *606:11 0.03836
4 *606:9 0.00355328
5 *803:wbs_dat_i[8] *803:wbs_sel_i[3] 2.26812e-05
6 *803:wbs_dat_i[8] *635:31 0.000518053
7 *803:wbs_dat_i[8] *636:33 0.000522549
8 *803:wbs_dat_i[8] *639:9 4.21127e-05
9 *606:11 wbs_dat_o[20] 0.000857276
10 *606:11 wbs_dat_o[7] 0.000101392
11 *606:11 *607:15 0.00254483
12 *606:11 *610:9 0.0001035
13 *606:11 *621:9 0.000724259
14 *606:11 *623:9 0.000387544
15 *606:11 *634:27 0.00144815
16 *606:11 *636:33 0.000166455
17 *803:wbs_adr_i[10] *803:wbs_dat_i[8] 0.00234324
18 *803:wbs_dat_i[7] *803:wbs_dat_i[8] 0.0228644
19 *544:11 *606:11 0.017181
20 *559:9 *803:wbs_dat_i[8] 0.000137061
21 *570:11 *606:11 0.0187995
22 *572:25 *606:11 0.00161716
23 *581:11 *803:wbs_dat_i[8] 4.60198e-05
24 *591:11 *606:11 0.000266195
*RES
1 wbs_dat_i[8] *606:9 3.92 
2 *606:9 *606:11 209.52 
3 *606:11 *803:wbs_dat_i[8] 32.23 
*END

*D_NET *607 0.141078
*CONN
*P wbs_dat_i[9] I
*I *803:wbs_dat_i[9] I *D memory_macro
*CAP
1 wbs_dat_i[9] 0.000130715
2 *803:wbs_dat_i[9] 0.0264674
3 *607:15 0.0299194
4 *607:13 0.00358269
5 *803:wbs_dat_i[9] wbs_dat_o[29] 0.009297
6 *803:wbs_dat_i[9] *612:17 0.00913139
7 *803:wbs_dat_i[9] *615:17 0.0046391
8 *803:wbs_dat_i[9] *629:13 0.000858807
9 *803:wbs_dat_i[9] *635:31 0.0091738
10 *803:wbs_dat_i[9] *637:17 0.00154739
11 *803:wbs_dat_i[9] *638:9 8.31907e-05
12 *803:wbs_dat_i[9] *639:9 8.1472e-05
13 *607:15 wbs_dat_o[20] 0.00125061
14 *607:15 wbs_dat_o[7] 0.000441675
15 *607:15 *623:9 0.000115907
16 *607:15 *624:9 0.000823083
17 *607:15 *633:25 0.0154367
18 *803:wbs_dat_i[7] *803:wbs_dat_i[9] 0
19 *570:11 *607:15 0.0174537
20 *571:19 *607:15 0.0029039
21 *572:37 *803:wbs_dat_i[9] 0
22 *581:11 *803:wbs_dat_i[9] 8.59615e-05
23 *588:33 *803:wbs_dat_i[9] 0
24 *592:11 *607:15 0.000221495
25 *602:11 *607:15 0.000399879
26 *604:13 *803:wbs_dat_i[9] 7.86938e-05
27 *605:11 *607:15 0.00440937
28 *606:11 *607:15 0.00254483
*RES
1 wbs_dat_i[9] *607:13 3.95 
2 *607:13 *607:15 217.11 
3 *607:15 *803:wbs_dat_i[9] 42.458 
*END

*D_NET *608 0.0496819
*CONN
*P wbs_dat_o[0] O
*I *803:wbs_dat_o[0] O *D memory_macro
*CAP
1 wbs_dat_o[0] 0.00459886
2 *803:wbs_dat_o[0] 0.00459886
3 wbs_dat_o[0] wbs_dat_o[9] 0.000332859
4 wbs_dat_o[0] *803:wbs_sel_i[0] 0.0217954
5 wbs_dat_o[0] *639:9 0.00130494
6 wbs_dat_o[0] *641:27 4.7371e-05
7 *803:wbs_adr_i[0] wbs_dat_o[0] 0.0170036
8 *581:9 wbs_dat_o[0] 0
*RES
1 *803:wbs_dat_o[0] wbs_dat_o[0] 45.6367 
*END

*D_NET *609 0.195343
*CONN
*P wbs_dat_o[10] O
*I *803:wbs_dat_o[10] O *D memory_macro
*CAP
1 wbs_dat_o[10] 0.0105087
2 *803:wbs_dat_o[10] 0.0103282
3 *609:17 0.0396368
4 *609:15 0.0394563
5 wbs_dat_o[10] *745:10 0.000238578
6 wbs_dat_o[10] *788:25 0
7 *609:15 *622:17 4.21127e-05
8 *609:17 *803:cpu_mem_addr[1] 0
9 *609:17 *803:cpu_mem_addr[2] 0
10 *609:17 *803:cpu_mem_wdata[23] 0
11 *609:17 *803:cpu_mem_we[0] 4.29716e-05
12 *609:17 *803:cpu_mem_we[1] 4.54618e-05
13 *609:17 *685:18 0
14 *609:17 *789:19 0
15 *609:17 *790:19 0
16 *529:26 *609:17 0.000203008
17 *545:17 wbs_dat_o[10] 0
18 *545:19 *609:17 0.0794493
19 *552:21 *609:17 0.0152814
20 *571:19 wbs_dat_o[10] 4.32417e-05
21 *572:25 wbs_dat_o[10] 3.99991e-05
22 *581:11 *609:15 2.70838e-05
*RES
1 *803:wbs_dat_o[10] *609:15 28.6038 
2 *609:15 *609:17 118.785 
3 *609:17 wbs_dat_o[10] 30.4392 
*END

*D_NET *610 0.218683
*CONN
*P wbs_dat_o[11] O
*I *803:wbs_dat_o[11] O *D memory_macro
*CAP
1 wbs_dat_o[11] 0.00023009
2 *803:wbs_dat_o[11] 0.000658436
3 *610:9 0.0161723
4 *610:7 0.0166007
5 *610:9 wbs_dat_o[7] 0.000286096
6 *610:9 *613:9 0.00394435
7 *610:9 *617:9 0.00427864
8 *610:9 *618:9 0.0729845
9 *610:9 *621:9 0.0158385
10 *610:9 *627:9 0.00841024
11 *610:9 *636:33 0.0299518
12 *610:9 *638:9 0.0204643
13 *544:11 *610:9 0.000212004
14 *572:25 *610:9 0.0113006
15 *577:11 *610:9 0.00147021
16 *578:9 wbs_dat_o[11] 0
17 *582:11 *610:9 0.00172381
18 *591:11 *610:9 0.0140527
19 *606:11 *610:9 0.0001035
*RES
1 *803:wbs_dat_o[11] *610:7 9.7325 
2 *610:7 *610:9 126.477 
3 *610:9 wbs_dat_o[11] 2.8775 
*END

*D_NET *611 0.166723
*CONN
*P wbs_dat_o[12] O
*I *803:wbs_dat_o[12] O *D memory_macro
*CAP
1 wbs_dat_o[12] 0.00337389
2 *803:wbs_dat_o[12] 0.0489261
3 *611:31 0.0523
4 wbs_dat_o[12] *635:31 0.00206781
5 wbs_dat_o[12] *636:33 0.0145284
6 wbs_dat_o[12] *643:11 0.0030066
7 *611:31 *612:17 0.00691195
8 *611:31 *615:17 0.00262204
9 *611:31 *622:17 0.00244409
10 *611:31 *625:9 0.000507042
11 *803:wbs_adr_i[10] *611:31 0.00919381
12 *803:wbs_dat_i[12] *611:31 0.000325612
13 *577:45 wbs_dat_o[12] 0.000522549
14 *579:33 *611:31 0
15 *581:11 *611:31 0.00126864
16 *589:11 wbs_dat_o[12] 0.000126737
17 *600:25 *611:31 0.0117557
18 *604:13 wbs_dat_o[12] 0.00684196
*RES
1 *803:wbs_dat_o[12] *611:31 42.7056 
2 *611:31 wbs_dat_o[12] 25.4166 
*END

*D_NET *612 0.194085
*CONN
*P wbs_dat_o[13] O
*I *803:wbs_dat_o[13] O *D memory_macro
*CAP
1 wbs_dat_o[13] 0.0438065
2 *803:wbs_dat_o[13] 0.000557253
3 *612:17 0.0524718
4 *612:15 0.00922258
5 *612:15 *622:17 0.00146681
6 *612:15 *625:9 0.000344101
7 *612:17 *615:17 0.00516504
8 *612:17 *629:13 0.0354877
9 *803:wbs_dat_i[9] *612:17 0.00913139
10 *548:17 wbs_dat_o[13] 0
11 *549:29 wbs_dat_o[13] 0.011696
12 *571:19 wbs_dat_o[13] 4.32417e-05
13 *572:25 wbs_dat_o[13] 3.99991e-05
14 *581:11 *612:15 0.000896831
15 *593:25 *612:15 0.000322399
16 *604:29 wbs_dat_o[13] 0.0165214
17 *611:31 *612:17 0.00691195
*RES
1 *803:wbs_dat_o[13] *612:15 5.17803 
2 *612:15 *612:17 54.226 
3 *612:17 wbs_dat_o[13] 48.7974 
*END

*D_NET *613 0.185962
*CONN
*P wbs_dat_o[14] O
*I *803:wbs_dat_o[14] O *D memory_macro
*CAP
1 wbs_dat_o[14] 0.000401549
2 *803:wbs_dat_o[14] 0.000570701
3 *613:9 0.0280767
4 *613:7 0.0282459
5 *613:9 wbs_dat_o[29] 0
6 *613:9 *617:9 0.091677
7 *613:9 *627:9 0.000306083
8 *613:9 *636:33 0.00450458
9 *613:9 *638:9 0.00725737
10 *613:9 *643:11 0.00579467
11 *577:11 *613:9 0.000412399
12 *582:11 *613:9 0.00279094
13 *589:11 *613:9 0.0119797
14 *589:27 *613:9 0
15 *590:17 *613:9 0
16 *610:9 *613:9 0.00394435
*RES
1 *803:wbs_dat_o[14] *613:7 10.34 
2 *613:7 *613:9 880.89 
3 *613:9 wbs_dat_o[14] 5.45 
*END

*D_NET *614 0.280443
*CONN
*P wbs_dat_o[15] O
*I *803:wbs_dat_o[15] O *D memory_macro
*CAP
1 wbs_dat_o[15] 0.0106362
2 *803:wbs_dat_o[15] 0.0102399
3 *614:17 0.034666
4 *614:15 0.0342697
5 *614:15 *622:17 0.0016822
6 *614:15 *625:9 0.000399417
7 *614:17 *803:cpu_mem_wdata[3] 0
8 *614:17 *752:25 7.80759e-05
9 *614:17 *753:25 7.80759e-05
10 *614:17 *754:29 0.00105982
11 *614:17 *786:22 0.00878278
12 *803:wbs_adr_i[12] *614:17 0.0024449
13 *803:wbs_dat_i[15] *614:15 0
14 *546:19 *614:17 0.0746771
15 *547:25 wbs_dat_o[15] 0
16 *550:17 wbs_dat_o[15] 0
17 *550:19 *614:17 0.100082
18 *571:19 wbs_dat_o[15] 0.000123132
19 *572:25 wbs_dat_o[15] 0.000118636
20 *583:11 *614:15 0.000732008
21 *593:25 *614:15 0.000373101
*RES
1 *803:wbs_dat_o[15] *614:15 30.8508 
2 *614:15 *614:17 153.979 
3 *614:17 wbs_dat_o[15] 30.2973 
*END

*D_NET *615 0.171932
*CONN
*P wbs_dat_o[16] O
*I *803:wbs_dat_o[16] O *D memory_macro
*CAP
1 wbs_dat_o[16] 0.00112156
2 *803:wbs_dat_o[16] 0.000533339
3 *615:17 0.0353166
4 *615:15 0.0347284
5 wbs_dat_o[16] *634:25 7.65551e-05
6 wbs_dat_o[16] *639:9 7.9246e-05
7 *615:15 *622:17 8.02929e-05
8 *615:17 *803:wbs_sel_i[1] 0.00188117
9 *615:17 *803:wbs_sel_i[3] 0.00602689
10 *615:17 *629:13 0.00373916
11 *615:17 *636:31 0.00724775
12 *615:17 *637:17 0.00130671
13 *803:wbs_dat_i[9] *615:17 0.0046391
14 *548:19 *615:17 0.00231704
15 *553:19 *615:17 0.0553629
16 *572:37 *615:17 0.00935715
17 *584:17 wbs_dat_o[16] 0.000302224
18 *585:11 *615:15 2.8439e-05
19 *611:31 *615:17 0.00262204
20 *612:17 *615:17 0.00516504
*RES
1 *803:wbs_dat_o[16] *615:15 3.42497 
2 *615:15 *615:17 163.767 
3 *615:17 wbs_dat_o[16] 12.8038 
*END

*D_NET *616 0.269181
*CONN
*P wbs_dat_o[17] O
*I *803:wbs_dat_o[17] O *D memory_macro
*CAP
1 wbs_dat_o[17] 0.000268781
2 *803:wbs_dat_o[17] 0.000730994
3 *616:31 0.00725777
4 *616:13 0.022549
5 *616:11 0.016291
6 *616:11 *622:9 0.00200466
7 *616:11 *625:9 0.000482992
8 *616:11 *629:13 1.07236e-05
9 *616:13 *622:17 0.0810134
10 *616:13 *629:13 0.0789465
11 *616:13 *637:17 0.00115624
12 *616:31 wbs_dat_o[1] 0.000155021
13 *616:31 wbs_dat_o[22] 0.0214234
14 *616:31 wbs_dat_o[7] 0.000263246
15 *616:31 *803:wbs_sel_i[1] 0.000917558
16 *616:31 *630:13 0.00135702
17 *616:31 *634:13 0.0285189
18 *616:31 *639:9 0.0031047
19 *552:21 *616:31 0.000446249
20 *571:19 *616:31 0.000245728
21 *572:25 *616:31 0.000281236
22 *577:45 *616:31 0.000649763
23 *585:11 *616:11 0.00065621
24 *593:25 *616:11 0.000449705
*RES
1 *803:wbs_dat_o[17] *616:11 4.93803 
2 *616:11 *616:13 124.029 
3 *616:13 *616:31 48.6282 
4 *616:31 wbs_dat_o[17] 1.4325 
*END

*D_NET *617 0.270043
*CONN
*P wbs_dat_o[18] O
*I *803:wbs_dat_o[18] O *D memory_macro
*CAP
1 wbs_dat_o[18] 0.000297744
2 *803:wbs_dat_o[18] 0.00056346
3 *617:9 0.0199087
4 *617:7 0.0201744
5 *617:9 *621:9 0.112746
6 *617:9 *627:9 0.00526266
7 *617:9 *636:33 0.00333752
8 *617:9 *638:9 0.00791779
9 *544:11 *617:9 0.000341959
10 *582:11 *617:9 0.00353683
11 *585:9 wbs_dat_o[18] 0
12 *589:27 *617:9 0
13 *610:9 *617:9 0.00427864
14 *613:9 *617:9 0.091677
*RES
1 *803:wbs_dat_o[18] *617:7 10.595 
2 *617:7 *617:9 1061.32 
3 *617:9 wbs_dat_o[18] 5.015 
*END

*D_NET *618 0.31649
*CONN
*P wbs_dat_o[19] O
*I *803:wbs_dat_o[19] O *D memory_macro
*CAP
1 wbs_dat_o[19] 0.000240837
2 *803:wbs_dat_o[19] 0.000658766
3 *618:9 0.0237168
4 *618:7 0.0241347
5 wbs_dat_o[19] *633:23 0
6 *618:9 wbs_dat_o[20] 0.0157695
7 *618:9 wbs_dat_o[31] 0.00121195
8 *618:9 wbs_dat_o[7] 0.000514213
9 *618:9 *620:9 0.106517
10 *618:9 *623:9 0.0276669
11 *618:9 *624:9 0.000133919
12 *618:9 *626:9 0.000411047
13 *618:9 *627:9 0.0167403
14 *803:wbs_adr_i[20] *618:9 8.14646e-05
15 *544:11 *618:9 0.00038021
16 *592:11 *618:9 0.0250635
17 *594:11 *618:9 0.000146106
18 *600:25 *618:9 0.000118636
19 *610:9 *618:9 0.0729845
*RES
1 *803:wbs_dat_o[19] *618:7 10.2425 
2 *618:7 *618:9 186.55 
3 *618:9 wbs_dat_o[19] 2.2025 
*END

*D_NET *619 0.0504216
*CONN
*P wbs_dat_o[1] O
*I *803:wbs_dat_o[1] O *D memory_macro
*CAP
1 wbs_dat_o[1] 0.0225223
2 *803:wbs_dat_o[1] 0.0225223
3 wbs_dat_o[1] *639:9 0.000157322
4 *803:wbs_dat_i[0] wbs_dat_o[1] 1.83513e-05
5 *803:wbs_dat_i[5] wbs_dat_o[1] 0.00389162
6 *541:39 wbs_dat_o[1] 0.00056435
7 *587:13 wbs_dat_o[1] 0
8 *601:33 wbs_dat_o[1] 0.000590287
9 *616:31 wbs_dat_o[1] 0.000155021
*RES
1 *803:wbs_dat_o[1] wbs_dat_o[1] 12.9092 
*END

*D_NET *620 0.357949
*CONN
*P wbs_dat_o[20] O
*I *803:wbs_dat_o[20] O *D memory_macro
*CAP
1 wbs_dat_o[20] 0.00651825
2 *803:wbs_dat_o[20] 0.000684947
3 *620:9 0.0236109
4 *620:7 0.0177776
5 wbs_dat_o[20] wbs_dat_o[25] 0.000198701
6 wbs_dat_o[20] wbs_dat_o[31] 3.59531e-06
7 wbs_dat_o[20] *624:9 0.00182522
8 wbs_dat_o[20] *626:9 0.00890539
9 wbs_dat_o[20] *631:9 0.000878798
10 *620:9 *624:9 0.0264855
11 *620:9 *626:9 0.113148
12 *620:9 *627:9 0.00152775
13 *549:11 wbs_dat_o[20] 0.000501695
14 *590:15 wbs_dat_o[20] 0.00213942
15 *593:23 wbs_dat_o[20] 0.00117144
16 *594:11 wbs_dat_o[20] 0.00107306
17 *594:11 *620:9 0.0242694
18 *599:11 wbs_dat_o[20] 0.000479384
19 *600:25 wbs_dat_o[20] 2.10582e-05
20 *602:11 wbs_dat_o[20] 0.00179027
21 *605:11 wbs_dat_o[20] 0.000544213
22 *606:11 wbs_dat_o[20] 0.000857276
23 *607:15 wbs_dat_o[20] 0.00125061
24 *618:9 wbs_dat_o[20] 0.0157695
25 *618:9 *620:9 0.106517
*RES
1 *803:wbs_dat_o[20] *620:7 10.7525 
2 *620:7 *620:9 167.438 
3 *620:9 wbs_dat_o[20] 32.8281 
*END

*D_NET *621 0.30143
*CONN
*P wbs_dat_o[21] O
*I *803:wbs_dat_o[21] O *D memory_macro
*CAP
1 wbs_dat_o[21] 0.000294847
2 *803:wbs_dat_o[21] 0.00056982
3 *621:9 0.0203903
4 *621:7 0.0206653
5 *621:9 *627:9 0.000400584
6 *803:wbs_adr_i[10] wbs_dat_o[21] 3.44105e-05
7 *544:11 *621:9 3.1835e-05
8 *589:27 *621:9 0
9 *590:17 *621:9 0
10 *591:11 *621:9 0.129734
11 *606:11 *621:9 0.000724259
12 *610:9 *621:9 0.0158385
13 *617:9 *621:9 0.112746
*RES
1 *803:wbs_dat_o[21] *621:7 10.85 
2 *621:7 *621:9 1193.46 
3 *621:9 wbs_dat_o[21] 4.94 
*END

*D_NET *622 0.335844
*CONN
*P wbs_dat_o[22] O
*I *803:wbs_dat_o[22] O *D memory_macro
*CAP
1 wbs_dat_o[22] 0.00539233
2 *803:wbs_dat_o[22] 3.98936e-05
3 *622:17 0.0226442
4 *622:15 0.0173843
5 *622:9 0.0136592
6 *622:7 0.0135666
7 wbs_dat_o[22] *630:13 0.00092105
8 wbs_dat_o[22] *632:13 0.00153644
9 wbs_dat_o[22] *634:13 7.87643e-06
10 wbs_dat_o[22] *639:9 0.0214311
11 *622:9 *625:9 0.00643767
12 *622:9 *629:13 0.0186677
13 *622:9 *632:13 0.00740918
14 *622:17 *625:9 0.00803109
15 *622:17 *632:13 0.0176506
16 *622:17 *637:17 5.70925e-06
17 *622:17 *639:9 0.0319323
18 *803:wbs_adr_i[10] *622:17 4.21127e-05
19 *803:wbs_adr_i[11] *622:17 0.000388408
20 *803:wbs_adr_i[12] *622:17 0.000503946
21 *803:wbs_adr_i[13] *622:17 8.02929e-05
22 *803:wbs_adr_i[14] *622:17 8.02929e-05
23 *803:wbs_adr_i[16] *622:17 4.21127e-05
24 *803:wbs_adr_i[17] *622:17 4.21127e-05
25 *803:wbs_adr_i[18] *622:9 0.0017553
26 *803:wbs_adr_i[19] *622:9 8.02929e-05
27 *803:wbs_adr_i[20] *622:9 0.000311379
28 *803:wbs_dat_i[12] *622:17 0.00350385
29 *803:wbs_dat_i[15] *622:17 4.21127e-05
30 *803:wbs_dat_i[17] *622:17 0.000922062
31 *803:wbs_dat_i[20] *622:9 4.21127e-05
32 *556:11 *622:9 0.00272531
33 *557:11 *622:9 0.00290239
34 *560:11 *622:9 0
35 *577:45 *622:17 0.00402245
36 *581:11 *622:17 0.00645883
37 *583:11 *622:17 0.00363283
38 *585:11 *622:9 0.000604282
39 *585:11 *622:17 0.00123766
40 *586:15 *622:9 0
41 *593:25 *622:9 0.00648397
42 *593:25 *622:17 0.00306597
43 *595:27 *622:9 0
44 *609:15 *622:17 4.21127e-05
45 *611:31 *622:17 0.00244409
46 *612:15 *622:17 0.00146681
47 *614:15 *622:17 0.0016822
48 *615:15 *622:17 8.02929e-05
49 *616:11 *622:9 0.00200466
50 *616:13 *622:17 0.0810134
51 *616:31 wbs_dat_o[22] 0.0214234
*RES
1 *803:wbs_dat_o[22] *622:7 1.0625 
2 *622:7 *622:9 52.0119 
3 *622:9 *622:15 2.14 
4 *622:15 *622:17 123.971 
5 *622:17 wbs_dat_o[22] 47.9396 
*END

*D_NET *623 0.345774
*CONN
*P wbs_dat_o[23] O
*I *803:wbs_dat_o[23] O *D memory_macro
*CAP
1 wbs_dat_o[23] 0.000195202
2 *803:wbs_dat_o[23] 0.000577989
3 *623:9 0.0179221
4 *623:7 0.0183049
5 *591:11 *623:9 0.139673
6 *592:11 *623:9 0.14093
7 *606:11 *623:9 0.000387544
8 *607:15 *623:9 0.000115907
9 *618:9 *623:9 0.0276669
*RES
1 *803:wbs_dat_o[23] *623:7 11.36 
2 *623:7 *623:9 1283.16 
3 *623:9 wbs_dat_o[23] 4.085 
*END

*D_NET *624 0.357635
*CONN
*P wbs_dat_o[24] O
*I *803:wbs_dat_o[24] O *D memory_macro
*CAP
1 wbs_dat_o[24] 0.000202926
2 *803:wbs_dat_o[24] 0.000601508
3 *624:9 0.0186451
4 *624:7 0.0190437
5 *624:9 wbs_dat_o[25] 0.000130373
6 *624:9 wbs_dat_o[31] 0.000274956
7 *624:9 *626:9 0.000433853
8 wbs_dat_o[20] *624:9 0.00182522
9 *592:11 *624:9 0.144674
10 *594:11 *624:9 0.144361
11 *602:11 *624:9 0
12 *607:15 *624:9 0.000823083
13 *618:9 *624:9 0.000133919
14 *620:9 *624:9 0.0264855
*RES
1 *803:wbs_dat_o[24] *624:7 11.87 
2 *624:7 *624:9 1327.32 
3 *624:9 wbs_dat_o[24] 3.92 
*END

*D_NET *625 0.313752
*CONN
*P wbs_dat_o[25] O
*I *803:wbs_dat_o[25] O *D memory_macro
*CAP
1 wbs_dat_o[25] 0.00148265
2 *803:wbs_dat_o[25] 4.54241e-05
3 *625:9 0.0259831
4 *625:7 0.0245458
5 wbs_dat_o[25] *626:9 0.000101392
6 *625:9 *629:13 0.00278647
7 *625:9 *632:13 0.139274
8 *625:9 *633:9 0.00503302
9 *625:9 *639:9 0.00925581
10 wbs_dat_o[20] wbs_dat_o[25] 0.000198701
11 *803:wbs_adr_i[12] *625:9 0.000113638
12 *803:wbs_adr_i[18] *625:9 0.000417855
13 *803:wbs_dat_i[17] *625:9 0.00021503
14 *561:11 *625:9 0
15 *563:9 wbs_dat_o[25] 0.000593967
16 *577:45 *625:9 0.000940149
17 *578:11 *625:9 0.00181371
18 *583:11 *625:9 0.000856053
19 *593:23 wbs_dat_o[25] 0.00044491
20 *593:25 *625:9 0.0789813
21 *594:11 wbs_dat_o[25] 0.000846443
22 *602:11 wbs_dat_o[25] 0.00348942
23 *611:31 *625:9 0.000507042
24 *612:15 *625:9 0.000344101
25 *614:15 *625:9 0.000399417
26 *616:11 *625:9 0.000482992
27 *622:9 *625:9 0.00643767
28 *622:17 *625:9 0.00803109
29 *624:9 wbs_dat_o[25] 0.000130373
*RES
1 *803:wbs_dat_o[25] *625:7 2.69 
2 *625:7 *625:9 1340.78 
3 *625:9 wbs_dat_o[25] 49.725 
*END

*D_NET *626 0.332152
*CONN
*P wbs_dat_o[26] O
*I *803:wbs_dat_o[26] O *D memory_macro
*CAP
1 wbs_dat_o[26] 0.000135632
2 *803:wbs_dat_o[26] 0.00066062
3 *626:9 0.0646612
4 *626:7 0.0651862
5 *626:9 wbs_dat_o[31] 0.00121472
6 *626:9 *627:9 0
7 *626:9 *628:13 0.0339956
8 *626:9 *631:9 0.000313417
9 wbs_dat_o[20] *626:9 0.00890539
10 wbs_dat_o[25] *626:9 0.000101392
11 *593:23 *626:9 0.00162698
12 *594:11 *626:9 0.00192469
13 *596:11 *626:9 0.0372275
14 *599:11 *626:9 0.000245023
15 *600:25 *626:9 0.000123132
16 *602:11 *626:9 0.0018367
17 *618:9 *626:9 0.000411047
18 *620:9 *626:9 0.113148
19 *624:9 *626:9 0.000433853
*RES
1 *803:wbs_dat_o[26] *626:7 11.2625 
2 *626:7 *626:9 239.339 
3 *626:9 wbs_dat_o[26] 1.5875 
*END

*D_NET *627 0.275365
*CONN
*P wbs_dat_o[27] O
*I *803:wbs_dat_o[27] O *D memory_macro
*CAP
1 wbs_dat_o[27] 0.000371495
2 *803:wbs_dat_o[27] 0.000450099
3 *627:9 0.0618023
4 *627:7 0.0618809
5 *627:9 wbs_dat_o[29] 0.000211238
6 *627:9 *638:9 0.0410233
7 *803:wbs_adr_i[15] *627:9 0.0135201
8 *803:wbs_adr_i[20] *627:9 0.021319
9 *803:wbs_dat_i[4] *627:9 0.00011761
10 *560:11 *627:9 0
11 *580:11 *627:9 0.0186297
12 *589:27 *627:9 0.0190474
13 *590:17 *627:9 0.00321355
14 *591:11 *627:9 0.000879204
15 *593:23 wbs_dat_o[27] 0.000203836
16 *595:27 *627:9 0
17 *597:25 *627:9 4.7371e-05
18 *610:9 *627:9 0.00841024
19 *613:9 *627:9 0.000306083
20 *617:9 *627:9 0.00526266
21 *618:9 *627:9 0.0167403
22 *620:9 *627:9 0.00152775
23 *621:9 *627:9 0.000400584
24 *626:9 *627:9 0
*RES
1 *803:wbs_dat_o[27] *627:7 8.2025 
2 *627:7 *627:9 246.797 
3 *627:9 wbs_dat_o[27] 4.5875 
*END

*D_NET *628 0.405469
*CONN
*P wbs_dat_o[28] O
*I *803:wbs_dat_o[28] O *D memory_macro
*CAP
1 wbs_dat_o[28] 0.000179398
2 *803:wbs_dat_o[28] 0.000651101
3 *628:13 0.0211316
4 *628:11 0.0216033
5 *596:11 *628:13 0.16277
6 *599:11 *628:13 0.164109
7 *602:11 *628:13 0.00102814
8 *626:9 *628:13 0.0339956
*RES
1 *803:wbs_dat_o[28] *628:11 13.535 
2 *628:11 *628:13 1505.34 
3 *628:13 wbs_dat_o[28] 3.665 
*END

*D_NET *629 0.366788
*CONN
*P wbs_dat_o[29] O
*I *803:wbs_dat_o[29] O *D memory_macro
*CAP
1 wbs_dat_o[29] 0.0124949
2 *803:wbs_dat_o[29] 0.000887255
3 *629:13 0.0562443
4 *629:11 0.0446367
5 *629:11 *632:13 0.000512862
6 *629:13 *632:13 0.0088006
7 *629:13 *637:17 0.0169437
8 *803:wbs_adr_i[27] *629:13 1.91843e-05
9 *803:wbs_dat_i[29] *629:13 0.000828975
10 *803:wbs_dat_i[9] wbs_dat_o[29] 0.009297
11 *803:wbs_dat_i[9] *629:13 0.000858807
12 *553:19 *629:13 0
13 *580:11 wbs_dat_o[29] 0.00020217
14 *589:25 wbs_dat_o[29] 0
15 *590:17 wbs_dat_o[29] 0.000353049
16 *595:27 *629:13 0
17 *597:27 *629:13 0.0748591
18 *612:17 *629:13 0.0354877
19 *613:9 wbs_dat_o[29] 0
20 *615:17 *629:13 0.00373916
21 *616:11 *629:13 1.07236e-05
22 *616:13 *629:13 0.0789465
23 *622:9 *629:13 0.0186677
24 *625:9 *629:13 0.00278647
25 *627:9 wbs_dat_o[29] 0.000211238
*RES
1 *803:wbs_dat_o[29] *629:11 3.14617 
2 *629:11 *629:13 239.514 
3 *629:13 wbs_dat_o[29] 23.3428 
*END

*D_NET *630 0.0595714
*CONN
*P wbs_dat_o[2] O
*I *803:wbs_dat_o[2] O *D memory_macro
*CAP
1 wbs_dat_o[2] 0.00050168
2 *803:wbs_dat_o[2] 8.0465e-05
3 *630:21 0.00666077
4 *630:19 0.00636036
5 *630:13 0.0052888
6 *630:11 0.005168
7 wbs_dat_o[2] *642:21 0
8 *630:13 *803:wbs_sel_i[1] 0.000197095
9 *630:13 *633:9 0.000380467
10 *630:13 *634:25 0.000281189
11 *630:13 *639:9 0.000122004
12 wbs_dat_o[22] *630:13 0.00092105
13 *803:wbs_adr_i[2] *630:13 0.000905204
14 *554:13 *630:21 0.00465885
15 *565:19 *630:21 0.00196213
16 *568:11 *630:21 0.0200429
17 *583:9 *630:19 3.06213e-05
18 *601:35 *630:13 0.00465277
19 *616:31 *630:13 0.00135702
*RES
1 *803:wbs_dat_o[2] *630:11 3.245 
2 *630:11 *630:13 124.995 
3 *630:13 *630:19 7.165 
4 *630:19 *630:21 189.855 
5 *630:21 wbs_dat_o[2] 10.295 
*END

*D_NET *631 0.29021
*CONN
*P wbs_dat_o[30] O
*I *803:wbs_dat_o[30] O *D memory_macro
*CAP
1 wbs_dat_o[30] 0.000155098
2 *803:wbs_dat_o[30] 0.000625316
3 *631:9 0.0579423
4 *631:7 0.0584125
5 wbs_dat_o[20] *631:9 0.000878798
6 *803:wbs_dat_i[4] wbs_dat_o[30] 1.83975e-05
7 *599:11 *631:9 0.171816
8 *602:11 *631:9 4.77719e-05
9 *626:9 *631:9 0.000313417
*RES
1 *803:wbs_dat_o[30] *631:7 13.145 
2 *631:7 *631:9 1595.73 
3 *631:9 wbs_dat_o[30] 3.32 
*END

*D_NET *632 0.311998
*CONN
*P wbs_dat_o[31] O
*I *803:wbs_dat_o[31] O *D memory_macro
*CAP
1 wbs_dat_o[31] 0.00120272
2 *803:wbs_dat_o[31] 5.98729e-05
3 *632:13 0.066536
4 *632:11 0.0653931
5 wbs_dat_o[20] wbs_dat_o[31] 3.59531e-06
6 wbs_dat_o[22] *632:13 0.00153644
7 *803:wbs_dat_i[29] *632:13 0.000664601
8 *561:11 *632:13 0
9 *563:11 *632:13 0
10 *594:11 wbs_dat_o[31] 0.000252022
11 *618:9 wbs_dat_o[31] 0.00121195
12 *622:9 *632:13 0.00740918
13 *622:17 *632:13 0.0176506
14 *624:9 wbs_dat_o[31] 0.000274956
15 *625:9 *632:13 0.139274
16 *626:9 wbs_dat_o[31] 0.00121472
17 *629:11 *632:13 0.000512862
18 *629:13 *632:13 0.0088006
*RES
1 *803:wbs_dat_o[31] *632:11 3.245 
2 *632:11 *632:13 1629.19 
3 *632:13 wbs_dat_o[31] 16.141 
*END

*D_NET *633 0.0888027
*CONN
*P wbs_dat_o[3] O
*I *803:wbs_dat_o[3] O *D memory_macro
*CAP
1 wbs_dat_o[3] 0.000100519
2 *803:wbs_dat_o[3] 7.13594e-05
3 *633:25 0.00416417
4 *633:23 0.00454403
5 *633:17 0.00264034
6 *633:15 0.00236582
7 *633:9 0.00214235
8 *633:7 0.00200785
9 *633:9 *639:9 0.00200264
10 *633:25 wbs_dat_o[7] 0.000337342
11 *633:25 *634:27 8.48152e-05
12 *633:25 *641:27 0.000455634
13 wbs_ack_o *633:25 0.000315602
14 wbs_dat_o[19] *633:23 0
15 *803:wbs_dat_i[0] *633:25 0.000238901
16 *556:11 *633:17 0
17 *557:11 *633:17 0
18 *558:11 *633:17 0.000193084
19 *559:11 *633:17 0.000562432
20 *565:19 *633:17 0.0003516
21 *568:11 *633:17 0.0079454
22 *570:11 *633:25 0.00380466
23 *571:19 *633:25 0.00266169
24 *572:25 *633:25 0.000705474
25 *578:11 *633:9 0.00127037
26 *579:33 *633:23 0.000202064
27 *585:11 *633:17 0.000113818
28 *586:15 *633:17 0.00145335
29 *601:35 *633:9 0.00698227
30 *602:11 *633:25 0.00183078
31 *605:11 *633:25 0.0184041
32 *607:15 *633:25 0.0154367
33 *625:9 *633:9 0.00503302
34 *630:13 *633:9 0.000380467
*RES
1 *803:wbs_dat_o[3] *633:7 2.945 
2 *633:7 *633:9 83.595 
3 *633:9 *633:15 6.655 
4 *633:15 *633:17 72.21 
5 *633:17 *633:23 11.245 
6 *633:23 *633:25 218.835 
7 *633:25 wbs_dat_o[3] 3.665 
*END

*D_NET *634 0.105249
*CONN
*P wbs_dat_o[4] O
*I *803:wbs_dat_o[4] O *D memory_macro
*CAP
1 wbs_dat_o[4] 0.000160513
2 *803:wbs_dat_o[4] 0.00621725
3 *634:27 0.00428629
4 *634:25 0.00596347
5 *634:13 0.00805494
6 *634:13 *637:17 0.0244313
7 *634:13 *638:27 0.0026037
8 *634:13 *639:9 0.000228913
9 *634:25 *638:27 0.00128521
10 *634:25 *639:9 0.00188851
11 *634:27 *641:27 0.000473164
12 *634:27 *643:11 0
13 wbs_dat_o[16] *634:25 7.65551e-05
14 wbs_dat_o[22] *634:13 7.87643e-06
15 *544:11 *634:27 0.00745418
16 *570:11 *634:27 0.00205007
17 *572:25 *634:27 0.00273625
18 *577:11 *634:27 0.00699779
19 *606:11 *634:27 0.00144815
20 *616:31 *634:13 0.0285189
21 *630:13 *634:25 0.000281189
22 *633:25 *634:27 8.48152e-05
*RES
1 *803:wbs_dat_o[4] *634:13 46.0963 
2 *634:13 *634:25 16.8758 
3 *634:25 *634:27 140.52 
4 *634:27 wbs_dat_o[4] 4.25 
*END

*D_NET *635 0.115233
*CONN
*P wbs_dat_o[5] O
*I *803:wbs_dat_o[5] O *D memory_macro
*CAP
1 wbs_dat_o[5] 0.000344375
2 *803:wbs_dat_o[5] 0.0145103
3 *635:33 0.00948431
4 *635:31 0.0236502
5 wbs_dat_o[5] *803:wbs_we_i 0
6 *635:31 *636:33 0.00183993
7 *635:31 *638:27 0.000747534
8 *635:31 *639:9 0.0111731
9 *635:31 *643:11 0.000493004
10 *635:33 *643:11 0
11 wbs_dat_o[12] *635:31 0.00206781
12 *803:wbs_adr_i[20] *635:31 0.000780977
13 *803:wbs_dat_i[0] wbs_dat_o[5] 0
14 *803:wbs_dat_i[0] *635:33 0.000171545
15 *803:wbs_dat_i[7] *635:31 0.000233543
16 *803:wbs_dat_i[8] *635:31 0.000518053
17 *803:wbs_dat_i[9] *635:31 0.0091738
18 *547:25 *635:33 0.00161696
19 *549:29 *635:31 0.000278402
20 *553:17 *635:33 0.000383964
21 *556:9 *635:31 6.72931e-05
22 *569:11 *635:33 0
23 *570:17 *635:31 0
24 *578:11 *635:31 0.00230687
25 *579:11 *635:33 0.0109319
26 *581:11 *635:31 0.0111776
27 *582:29 *635:31 9.52587e-05
28 *584:17 *635:33 0.000152088
29 *588:11 *635:33 0.00087627
30 *589:11 *635:31 0.000537867
31 *593:25 *635:31 0.00251679
32 *604:13 *635:31 0.00610043
33 *604:13 *635:33 0.00300229
*RES
1 *803:wbs_dat_o[5] *635:31 44.4211 
2 *635:31 *635:33 203.31 
3 *635:33 wbs_dat_o[5] 7.145 
*END

*D_NET *636 0.141401
*CONN
*P wbs_dat_o[6] O
*I *803:wbs_dat_o[6] O *D memory_macro
*CAP
1 wbs_dat_o[6] 0.000200857
2 *803:wbs_dat_o[6] 0.00688876
3 *636:33 0.00758784
4 *636:31 0.0142757
5 *636:31 *803:wbs_sel_i[3] 0.00221843
6 *636:31 *637:17 0.0214335
7 *636:31 *639:9 0.000121476
8 *636:33 *638:9 0.00964474
9 *636:33 *641:27 0.00682492
10 *636:33 *642:21 0.00595618
11 *636:33 *643:11 0.00152983
12 wbs_dat_o[12] *636:33 0.0145284
13 *803:wbs_dat_i[8] *636:33 0.000522549
14 *549:29 *636:33 0.000282899
15 *570:11 *636:33 0.000117682
16 *572:25 *636:33 0.000250858
17 *577:11 *636:33 0.000304217
18 *581:11 *636:31 0.00012921
19 *589:11 *636:33 0.000198516
20 *600:25 *636:31 7.37663e-05
21 *604:13 *636:33 0.00126262
22 *606:11 *636:33 0.000166455
23 *610:9 *636:33 0.0299518
24 *613:9 *636:33 0.00450458
25 *615:17 *636:31 0.00724775
26 *617:9 *636:33 0.00333752
27 *635:31 *636:33 0.00183993
*RES
1 *803:wbs_dat_o[6] *636:31 46.4135 
2 *636:31 *636:33 55.5661 
3 *636:33 wbs_dat_o[6] 3.5675 
*END

*D_NET *637 0.148711
*CONN
*P wbs_dat_o[7] O
*I *803:wbs_dat_o[7] O *D memory_macro
*CAP
1 wbs_dat_o[7] 0.00801262
2 *803:wbs_dat_o[7] 0.000417522
3 *637:17 0.0174713
4 *637:15 0.00987619
5 wbs_dat_o[7] *803:wbs_sel_i[1] 0.000129766
6 wbs_dat_o[7] *639:9 0.000265847
7 *637:15 *639:9 8.1472e-05
8 *637:17 *803:wbs_sel_i[3] 0.00510952
9 *637:17 *638:27 0.00638833
10 *637:17 *639:9 1.42217e-05
11 *803:wbs_adr_i[20] wbs_dat_o[7] 5.05905e-05
12 *803:wbs_dat_i[9] *637:17 0.00154739
13 *549:11 wbs_dat_o[7] 0.00179145
14 *570:11 wbs_dat_o[7] 0.000329508
15 *571:19 wbs_dat_o[7] 0.0168734
16 *572:25 wbs_dat_o[7] 0.00442424
17 *581:11 *637:15 8.59615e-05
18 *588:9 wbs_dat_o[7] 0
19 *602:11 wbs_dat_o[7] 0.00507131
20 *605:11 wbs_dat_o[7] 0.00354942
21 *606:11 wbs_dat_o[7] 0.000101392
22 *607:15 wbs_dat_o[7] 0.000441675
23 *610:9 wbs_dat_o[7] 0.000286096
24 *615:17 *637:17 0.00130671
25 *616:13 *637:17 0.00115624
26 *616:31 wbs_dat_o[7] 0.000263246
27 *618:9 wbs_dat_o[7] 0.000514213
28 *622:17 *637:17 5.70925e-06
29 *629:13 *637:17 0.0169437
30 *633:25 wbs_dat_o[7] 0.000337342
31 *634:13 *637:17 0.0244313
32 *636:31 *637:17 0.0214335
*RES
1 *803:wbs_dat_o[7] *637:15 3.67657 
2 *637:15 *637:17 66.6951 
3 *637:17 wbs_dat_o[7] 46.1586 
*END

*D_NET *638 0.156343
*CONN
*P wbs_dat_o[8] O
*I *803:wbs_dat_o[8] O *D memory_macro
*CAP
1 wbs_dat_o[8] 0.000746601
2 *803:wbs_dat_o[8] 0.000587361
3 *638:27 0.00908464
4 *638:9 0.0165223
5 *638:7 0.0087716
6 *638:27 wbs_dat_o[9] 0.000870967
7 *638:27 *803:wbs_sel_i[1] 0.0139396
8 *638:27 *803:wbs_sel_i[3] 0.00122884
9 *638:27 *803:wbs_we_i 0.000479002
10 *638:27 *639:9 0.000801583
11 *803:wbs_adr_i[0] *638:27 4.7371e-05
12 *803:wbs_dat_i[7] *638:27 0.00020519
13 *803:wbs_dat_i[9] *638:9 8.31907e-05
14 *572:37 *638:27 0.00276313
15 *580:11 *638:9 0.000360938
16 *589:11 *638:9 0.00116034
17 *595:25 *638:9 4.00045e-05
18 *604:13 *638:9 0.00131771
19 *610:9 *638:9 0.0204643
20 *613:9 *638:9 0.00725737
21 *617:9 *638:9 0.00791779
22 *627:9 *638:9 0.0410233
23 *634:13 *638:27 0.0026037
24 *634:25 *638:27 0.00128521
25 *635:31 *638:27 0.000747534
26 *636:33 *638:9 0.00964474
27 *637:17 *638:27 0.00638833
*RES
1 *803:wbs_dat_o[8] *638:7 8.7125 
2 *638:7 *638:9 66.7825 
3 *638:9 *638:27 41.5146 
4 *638:27 wbs_dat_o[8] 10.3725 
*END

*D_NET *639 0.180867
*CONN
*P wbs_dat_o[9] O
*I *803:wbs_dat_o[9] O *D memory_macro
*CAP
1 wbs_dat_o[9] 0.00198841
2 *803:wbs_dat_o[9] 8.20473e-05
3 *639:9 0.0176394
4 *639:7 0.0157331
5 wbs_dat_o[9] *803:wbs_we_i 0.000138366
6 wbs_dat_o[9] *641:27 4.7371e-05
7 *639:9 *803:wbs_sel_i[0] 0.000109698
8 *639:9 *803:wbs_sel_i[1] 0.000922371
9 *639:9 *803:wbs_sel_i[3] 0.000121476
10 wbs_dat_o[0] wbs_dat_o[9] 0.000332859
11 wbs_dat_o[0] *639:9 0.00130494
12 wbs_dat_o[16] *639:9 7.9246e-05
13 wbs_dat_o[1] *639:9 0.000157322
14 wbs_dat_o[22] *639:9 0.0214311
15 wbs_dat_o[7] *639:9 0.000265847
16 *803:wbs_adr_i[0] wbs_dat_o[9] 0.00198146
17 *803:wbs_adr_i[2] *639:9 0.000295743
18 *803:wbs_adr_i[6] *639:9 4.21127e-05
19 *803:wbs_adr_i[7] *639:9 0.000480889
20 *803:wbs_dat_i[7] *639:9 0.000933068
21 *803:wbs_dat_i[8] *639:9 4.21127e-05
22 *803:wbs_dat_i[9] *639:9 8.1472e-05
23 *562:25 *639:9 0.00139945
24 *572:25 *639:9 4.20804e-05
25 *578:11 wbs_dat_o[9] 0.000185579
26 *578:11 *639:9 0.0116299
27 *581:11 *639:9 0.0305607
28 *593:25 *639:9 0.00525214
29 *601:35 wbs_dat_o[9] 0.00061553
30 *601:35 *639:9 0.00537302
31 *616:31 *639:9 0.0031047
32 *622:17 *639:9 0.0319323
33 *625:9 *639:9 0.00925581
34 *630:13 *639:9 0.000122004
35 *633:9 *639:9 0.00200264
36 *634:13 *639:9 0.000228913
37 *634:25 *639:9 0.00188851
38 *635:31 *639:9 0.0111731
39 *636:31 *639:9 0.000121476
40 *637:15 *639:9 8.1472e-05
41 *637:17 *639:9 1.42217e-05
42 *638:27 wbs_dat_o[9] 0.000870967
43 *638:27 *639:9 0.000801583
*RES
1 *803:wbs_dat_o[9] *639:7 1.5725 
2 *639:7 *639:9 105.879 
3 *639:9 wbs_dat_o[9] 16.1249 
*END

*D_NET *640 0.058307
*CONN
*P wbs_sel_i[0] I
*I *803:wbs_sel_i[0] I *D memory_macro
*CAP
1 wbs_sel_i[0] 0.00462842
2 *803:wbs_sel_i[0] 0.00462842
3 wbs_dat_o[0] *803:wbs_sel_i[0] 0.0217954
4 *554:13 *803:wbs_sel_i[0] 0.0236993
5 *565:19 *803:wbs_sel_i[0] 0.00238837
6 *581:11 *803:wbs_sel_i[0] 0.00105739
7 *639:9 *803:wbs_sel_i[0] 0.000109698
*RES
1 wbs_sel_i[0] *803:wbs_sel_i[0] 48.4289 
*END

*D_NET *641 0.0671438
*CONN
*P wbs_sel_i[1] I
*I *803:wbs_sel_i[1] I *D memory_macro
*CAP
1 wbs_sel_i[1] 0.00415893
2 *803:wbs_sel_i[1] 0.00473848
3 *641:27 0.00889742
4 *641:27 *803:wbs_stb_i 0.000110309
5 *641:27 *803:wbs_we_i 0.000373875
6 *641:27 *642:21 0.0047415
7 *641:27 *643:11 0.000278174
8 wbs_dat_o[0] *641:27 4.7371e-05
9 wbs_dat_o[7] *803:wbs_sel_i[1] 0.000129766
10 wbs_dat_o[9] *641:27 4.7371e-05
11 *803:wbs_dat_i[0] *641:27 0.00722537
12 *548:19 *803:wbs_sel_i[1] 0.000745011
13 *553:17 *803:wbs_sel_i[1] 5.41461e-05
14 *565:17 *641:27 0
15 *571:19 *641:27 0.000575123
16 *572:25 *641:27 0.00653862
17 *572:37 *803:wbs_sel_i[1] 0.00252262
18 *578:9 *641:27 0
19 *587:13 *641:27 0
20 *598:17 *641:27 0.00034822
21 *615:17 *803:wbs_sel_i[1] 0.00188117
22 *616:31 *803:wbs_sel_i[1] 0.000917558
23 *630:13 *803:wbs_sel_i[1] 0.000197095
24 *633:25 *641:27 0.000455634
25 *634:27 *641:27 0.000473164
26 *636:33 *641:27 0.00682492
27 *638:27 *803:wbs_sel_i[1] 0.0139396
28 *639:9 *803:wbs_sel_i[1] 0.000922371
*RES
1 wbs_sel_i[1] *641:27 36.2086 
2 *641:27 *803:wbs_sel_i[1] 25.302 
*END

*D_NET *642 0.0888365
*CONN
*P wbs_sel_i[2] I
*I *803:wbs_sel_i[2] I *D memory_macro
*CAP
1 wbs_sel_i[2] 0.0029368
2 *803:wbs_sel_i[2] 0.00500648
3 *642:21 0.00794327
4 *642:21 *803:wbs_we_i 0.000373875
5 *642:21 *643:11 0.000187593
6 wbs_dat_o[2] *642:21 0
7 *803:wbs_adr_i[20] *803:wbs_sel_i[2] 0.00176334
8 *803:wbs_dat_i[0] *803:wbs_sel_i[2] 0.00302297
9 *803:wbs_dat_i[2] *803:wbs_sel_i[2] 0.0205019
10 *541:39 *642:21 4.21127e-05
11 *560:11 *803:wbs_sel_i[2] 0.00328894
12 *569:11 *803:wbs_sel_i[2] 0.000814117
13 *570:19 *803:wbs_sel_i[2] 0.00173859
14 *573:11 *803:wbs_sel_i[2] 0.000897219
15 *579:11 *803:wbs_sel_i[2] 0.00020516
16 *580:11 *803:wbs_sel_i[2] 0.0189082
17 *586:15 *803:wbs_sel_i[2] 0.000574338
18 *588:33 *803:wbs_sel_i[2] 0.000278402
19 *598:17 *642:21 0.00604877
20 *601:33 *642:21 7.86938e-05
21 *604:13 *803:wbs_sel_i[2] 0.000344045
22 *604:13 *642:21 0.00318399
23 *636:33 *642:21 0.00595618
24 *641:27 *642:21 0.0047415
*RES
1 wbs_sel_i[2] *642:21 26.6893 
2 *642:21 *803:wbs_sel_i[2] 42.4585 
*END

*D_NET *643 0.0700965
*CONN
*P wbs_sel_i[3] I
*I *803:wbs_sel_i[3] I *D memory_macro
*CAP
1 wbs_sel_i[3] 0.000271196
2 *803:wbs_sel_i[3] 0.00483111
3 *643:11 0.0176407
4 *643:9 0.0130808
5 wbs_dat_o[12] *643:11 0.0030066
6 *803:wbs_dat_i[2] *803:wbs_sel_i[3] 0.000118687
7 *803:wbs_dat_i[8] *803:wbs_sel_i[3] 2.26812e-05
8 *541:39 *643:11 2.81428e-05
9 *547:25 *643:11 0.000832189
10 *559:9 *803:wbs_sel_i[3] 0
11 *572:37 *803:wbs_sel_i[3] 0.00176673
12 *577:11 *643:11 0.000797329
13 *581:11 *803:wbs_sel_i[3] 0.00012921
14 *588:11 *643:11 0
15 *589:11 *643:11 0.00422084
16 *598:17 *643:11 0.000361877
17 *613:9 *643:11 0.00579467
18 *615:17 *803:wbs_sel_i[3] 0.00602689
19 *634:27 *643:11 0
20 *635:31 *643:11 0.000493004
21 *635:33 *643:11 0
22 *636:31 *803:wbs_sel_i[3] 0.00221843
23 *636:33 *643:11 0.00152983
24 *637:17 *803:wbs_sel_i[3] 0.00510952
25 *638:27 *803:wbs_sel_i[3] 0.00122884
26 *639:9 *803:wbs_sel_i[3] 0.000121476
27 *641:27 *643:11 0.000278174
28 *642:21 *643:11 0.000187593
*RES
1 wbs_sel_i[3] *643:9 5.96 
2 *643:9 *643:11 273 
3 *643:11 *803:wbs_sel_i[3] 34.025 
*END

*D_NET *644 0.0300222
*CONN
*P wbs_stb_i I
*I *803:wbs_stb_i I *D memory_macro
*CAP
1 wbs_stb_i 0.00643586
2 *803:wbs_stb_i 0.00643586
3 *803:wbs_stb_i *803:wbs_we_i 0.00131891
4 wbs_ack_o *803:wbs_stb_i 0.0112345
5 *803:wbs_adr_i[0] *803:wbs_stb_i 0.000781233
6 *803:wbs_dat_i[0] *803:wbs_stb_i 0.000270456
7 *803:wbs_dat_i[5] *803:wbs_stb_i 1.17533e-05
8 *570:11 *803:wbs_stb_i 0.000318435
9 *571:19 *803:wbs_stb_i 0.00211306
10 *602:11 *803:wbs_stb_i 0.00098722
11 *605:9 *803:wbs_stb_i 4.61701e-06
12 *641:27 *803:wbs_stb_i 0.000110309
*RES
1 wbs_stb_i *803:wbs_stb_i 37.3279 
*END

*D_NET *645 0.0369235
*CONN
*P wbs_we_i I
*I *803:wbs_we_i I *D memory_macro
*CAP
1 wbs_we_i 0.00569777
2 *803:wbs_we_i 0.00569777
3 wbs_ack_o *803:wbs_we_i 0.0111128
4 wbs_dat_o[5] *803:wbs_we_i 0
5 wbs_dat_o[9] *803:wbs_we_i 0.000138366
6 *803:wbs_adr_i[0] *803:wbs_we_i 0.00115428
7 *803:wbs_cyc_i *803:wbs_we_i 0.00130108
8 *803:wbs_dat_i[0] *803:wbs_we_i 0.00927574
9 *803:wbs_stb_i *803:wbs_we_i 0.00131891
10 *638:27 *803:wbs_we_i 0.000479002
11 *641:27 *803:wbs_we_i 0.000373875
12 *642:21 *803:wbs_we_i 0.000373875
*RES
1 wbs_we_i *803:wbs_we_i 39.9563 
*END

*D_NET *646 0.343888
*CONN
*I *802:A0[0] I *D DFFRAM512x32
*I *803:mem_addr[0] O *D memory_macro
*CAP
1 *802:A0[0] 0.00496929
2 *803:mem_addr[0] 0.00567843
3 *646:21 0.0180611
4 *646:19 0.0130918
5 *646:17 0.00294298
6 *646:15 0.00326528
7 *646:9 0.0196899
8 *646:7 0.0193676
9 *646:5 0.00567843
10 *802:A0[0] *802:A0[1] 0.0197405
11 *802:A0[0] *660:11 7.80775e-05
12 *802:A0[0] *677:19 7.80775e-05
13 *646:9 *647:9 0.0450294
14 *646:9 *651:16 0.00517987
15 *646:9 *710:9 0
16 *646:17 *647:17 0.015026
17 *646:17 *691:11 0.00240833
18 *646:21 *647:21 0.0656568
19 *646:21 *653:21 0.0656568
20 *64:13 *802:A0[0] 0.0130866
21 *79:18 *646:17 0
22 *139:21 *646:9 0
23 *139:29 *646:17 0.0180044
24 *140:13 *802:A0[0] 0.00119847
*RES
1 *803:mem_addr[0] *646:5 97.9725 
2 *646:5 *646:7 0.5 
3 *646:7 *646:9 75.5516 
4 *646:9 *646:15 7.3225 
5 *646:15 *646:17 163.29 
6 *646:17 *646:19 2 
7 *646:19 *646:21 758.347 
8 *646:21 *802:A0[0] 38.4901 
*END

*D_NET *647 0.325145
*CONN
*I *802:A0[1] I *D DFFRAM512x32
*I *803:mem_addr[1] O *D memory_macro
*CAP
1 *802:A0[1] 0.003831
2 *803:mem_addr[1] 0.00551142
3 *647:21 0.0321278
4 *647:19 0.0282968
5 *647:17 0.00253976
6 *647:15 0.00281992
7 *647:9 0.00938127
8 *647:7 0.00910111
9 *647:5 0.00551142
10 *802:A0[1] *802:A0[2] 0.0169353
11 *802:A0[1] *660:11 0.000376825
12 *802:A0[1] *677:19 0.000376825
13 *647:9 *648:9 0.0034192
14 *647:9 *649:9 0.0361551
15 *647:9 *651:16 0.0059734
16 *647:9 *710:9 0
17 *647:17 *648:17 0.0123661
18 *647:17 *690:11 0.0032636
19 *647:21 *653:21 3.22574e-05
20 *802:A0[0] *802:A0[1] 0.0197405
21 *64:13 *802:A0[1] 9.4675e-06
22 *79:18 *647:17 0
23 *139:21 *647:9 0
24 *139:29 *647:17 2.01504e-05
25 *140:13 *802:A0[1] 0.00164335
26 *646:9 *647:9 0.0450294
27 *646:17 *647:17 0.015026
28 *646:21 *647:21 0.0656568
*RES
1 *803:mem_addr[1] *647:5 98.4825 
2 *647:5 *647:7 0.5 
3 *647:7 *647:9 71.2399 
4 *647:9 *647:15 6.5575 
5 *647:15 *647:17 136.725 
6 *647:17 *647:19 2 
7 *647:19 *647:21 759.112 
8 *647:21 *802:A0[1] 35.3066 
*END

*D_NET *648 0.328897
*CONN
*I *802:A0[2] I *D DFFRAM512x32
*I *803:mem_addr[2] O *D memory_macro
*CAP
1 *802:A0[2] 0.00342867
2 *803:mem_addr[2] 0.00556725
3 *648:29 0.013504
4 *648:27 0.0107907
5 *648:17 0.00410792
6 *648:15 0.00358844
7 *648:9 0.00911234
8 *648:7 0.00891654
9 *648:5 0.00556725
10 *802:A0[2] *660:11 0.00030908
11 *802:A0[2] *677:19 0.00030908
12 *648:9 *649:9 0.0385611
13 *648:9 *651:16 0.00636262
14 *648:9 *652:9 0.0236341
15 *648:17 *649:19 0.00363336
16 *648:17 *690:11 0.00240833
17 *648:27 *651:18 0.000341374
18 *648:27 *660:15 0.00301781
19 *648:27 *701:10 0.00173352
20 *648:29 *660:15 0.0648047
21 *648:29 *675:26 0.0648061
22 *802:A0[1] *802:A0[2] 0.0169353
23 *79:18 *648:17 0
24 *139:21 *648:9 0.00474141
25 *140:13 *802:A0[2] 0.0169308
26 *647:9 *648:9 0.0034192
27 *647:17 *648:17 0.0123661
*RES
1 *803:mem_addr[2] *648:5 99.5025 
2 *648:5 *648:7 0.5 
3 *648:7 *648:9 65.9376 
4 *648:9 *648:15 5.2825 
5 *648:15 *648:17 112.23 
6 *648:17 *648:27 41.325 
7 *648:27 *648:29 725.453 
8 *648:29 *802:A0[2] 30.9088 
*END

*D_NET *649 0.305867
*CONN
*I *802:A0[3] I *D DFFRAM512x32
*I *803:mem_addr[3] O *D memory_macro
*CAP
1 *802:A0[3] 8.08277e-05
2 *803:mem_addr[3] 0.00553611
3 *649:25 0.00508847
4 *649:23 0.00500764
5 *649:21 0.0107647
6 *649:19 0.0122668
7 *649:9 0.0110749
8 *649:7 0.0095729
9 *649:5 0.00553611
10 *649:9 *651:16 0.00863154
11 *649:9 *652:9 0.00509647
12 *649:9 *692:11 0
13 *649:9 *710:9 0
14 *649:19 *689:11 0.000636113
15 *649:21 *650:10 2.53191e-06
16 *649:21 *652:13 0.0682673
17 *649:21 *660:15 6.14647e-05
18 *649:21 *675:26 0.0681094
19 *649:25 *802:A0[6] 0.00156182
20 *649:25 *674:16 0.00451133
21 *649:25 *675:12 0.00142805
22 *649:25 *676:17 0.00279902
23 *79:18 *649:19 0
24 *102:29 *649:25 0.00148382
25 *647:9 *649:9 0.0361551
26 *648:9 *649:9 0.0385611
27 *648:17 *649:19 0.00363336
*RES
1 *803:mem_addr[3] *649:5 98.9925 
2 *649:5 *649:7 0.5 
3 *649:7 *649:9 70.1911 
4 *649:9 *649:19 40.7625 
5 *649:19 *649:21 765.36 
6 *649:21 *649:23 2 
7 *649:23 *649:25 128.79 
8 *649:25 *802:A0[3] 3.32 
*END

*D_NET *650 0.292195
*CONN
*I *802:A0[4] I *D DFFRAM512x32
*I *803:mem_addr[4] O *D memory_macro
*CAP
1 *802:A0[4] 0.00294346
2 *803:mem_addr[4] 0
3 *650:10 0.0173447
4 *650:8 0.0144012
5 *650:6 0.018236
6 *650:4 0.018236
7 *802:A0[4] *802:A0[5] 0.00513852
8 *802:A0[4] *660:11 0.0117584
9 *802:A0[4] *675:12 0.00016743
10 *802:A0[4] *676:15 0.00105784
11 *650:6 *803:mem_rdata[10] 0.00110639
12 *650:6 *803:mem_rdata[11] 0.00158669
13 *650:6 *803:mem_rdata[12] 0.0115589
14 *650:6 *803:mem_rdata[13] 4.21127e-05
15 *650:6 *803:mem_rdata[14] 8.02886e-05
16 *650:6 *803:mem_rdata[15] 0.000102291
17 *650:6 *803:mem_rdata[16] 0.00161642
18 *650:6 *803:mem_rdata[8] 0.0001555
19 *650:6 *651:16 4.21127e-05
20 *650:6 *682:14 0.00145015
21 *650:6 *684:14 0.00474448
22 *650:6 *723:9 0.00629052
23 *650:10 *652:13 0.000114214
24 *650:10 *654:13 0.0682144
25 *650:10 *657:26 0.0772037
26 *650:10 *660:15 0
27 *650:10 *662:15 0.000153145
28 *650:10 *675:26 0
29 *803:wbs_dat_i[20] *650:6 0.000349889
30 *529:28 *650:6 0.014536
31 *562:27 *650:6 0.010536
32 *588:35 *650:6 0.0030256
33 *649:21 *650:10 2.53191e-06
*RES
1 *803:mem_addr[4] *650:4 0.5 
2 *650:4 *650:6 66.6951 
3 *650:6 *650:8 0.5 
4 *650:8 *650:10 869.145 
5 *650:10 *802:A0[4] 21.1966 
*END

*D_NET *651 0.326715
*CONN
*I *802:A0[5] I *D DFFRAM512x32
*I *803:mem_addr[5] O *D memory_macro
*CAP
1 *802:A0[5] 0.00257367
2 *803:mem_addr[5] 0.0340232
3 *651:18 0.0592313
4 *651:16 0.0906809
5 *802:A0[5] *802:A0[6] 0.00720463
6 *802:A0[5] *802:A0[7] 0.000191264
7 *802:A0[5] *660:11 8.54041e-05
8 *802:A0[5] *661:11 5.42697e-05
9 *802:A0[5] *674:10 0.000219934
10 *802:A0[5] *675:12 0.00185188
11 *651:16 *652:9 0.00733026
12 *651:16 *653:15 0.00564843
13 *651:16 *654:11 0.0034646
14 *651:16 *684:14 4.43752e-05
15 *651:16 *689:11 0.00150166
16 *651:16 *690:11 0.00131854
17 *651:16 *691:11 0.00104304
18 *651:16 *692:11 0.00121982
19 *651:16 *693:11 0.000293
20 *651:16 *694:15 0.000424836
21 *651:16 *710:9 0.00538984
22 *651:18 *660:15 0.0106712
23 *651:18 *661:15 0.0153212
24 *651:18 *663:15 0.017132
25 *651:18 *701:10 0.0107308
26 *802:A0[4] *802:A0[5] 0.00513852
27 *52:21 *651:16 0.00381827
28 *61:13 *651:16 0.00381827
29 *79:10 *651:16 0.00131318
30 *79:32 *651:18 0
31 *90:13 *651:16 0.00381827
32 *128:21 *651:16 0.00381827
33 *138:25 *651:16 0
34 *139:21 *651:16 0.000809558
35 *646:9 *651:16 0.00517987
36 *647:9 *651:16 0.0059734
37 *648:9 *651:16 0.00636262
38 *648:27 *651:18 0.000341374
39 *649:9 *651:16 0.00863154
40 *650:6 *651:16 4.21127e-05
*RES
1 *803:mem_addr[5] *651:16 24.2112 
2 *651:16 *651:18 130.013 
3 *651:18 *802:A0[5] 17.1292 
*END

*D_NET *652 0.285093
*CONN
*I *802:A0[6] I *D DFFRAM512x32
*I *803:mem_addr[6] O *D memory_macro
*CAP
1 *802:A0[6] 0.00146885
2 *803:mem_addr[6] 0.00562611
3 *652:13 0.012276
4 *652:11 0.0108071
5 *652:9 0.00656435
6 *652:7 0.00656435
7 *652:5 0.00562611
8 *802:A0[6] *802:A0[7] 0.00486205
9 *802:A0[6] *664:6 0.000114187
10 *802:A0[6] *674:10 0.00215086
11 *802:A0[6] *676:17 0.000514658
12 *652:9 *653:15 0.0312379
13 *652:9 *653:19 1.41896e-05
14 *652:9 *654:11 0.000170137
15 *652:9 *692:11 0
16 *652:9 *694:15 0.00248768
17 *652:13 *654:13 0.0682144
18 *652:13 *675:26 9.24209e-05
19 *802:A0[5] *802:A0[6] 0.00720463
20 *79:18 *652:9 0.0116161
21 *79:32 *652:9 4.49232e-05
22 *139:21 *652:9 0.00143162
23 *648:9 *652:9 0.0236341
24 *649:9 *652:9 0.00509647
25 *649:21 *652:13 0.0682673
26 *649:25 *802:A0[6] 0.00156182
27 *650:10 *652:13 0.000114214
28 *651:16 *652:9 0.00733026
*RES
1 *803:mem_addr[6] *652:5 100.012 
2 *652:5 *652:7 0.5 
3 *652:7 *652:9 53.5851 
4 *652:9 *652:11 0.5 
5 *652:11 *652:13 767.145 
6 *652:13 *802:A0[6] 12.0504 
*END

*D_NET *653 0.26117
*CONN
*I *802:A0[7] I *D DFFRAM512x32
*I *803:mem_addr[7] O *D memory_macro
*CAP
1 *802:A0[7] 0.00138025
2 *803:mem_addr[7] 0.00566751
3 *653:21 0.0134953
4 *653:19 0.0127303
5 *653:15 0.00570757
6 *653:5 0.0107599
7 *802:A0[7] *802:A0[8] 0.00051169
8 *802:A0[7] *657:10 1.81028e-05
9 *802:A0[7] *657:24 0.00176986
10 *802:A0[7] *659:16 0.000113269
11 *802:A0[7] *664:6 0.00205068
12 *802:A0[7] *669:11 0
13 *802:A0[7] *674:16 0.00104938
14 *802:A0[7] *676:17 0.000911148
15 *653:15 *654:11 0.0267157
16 *653:15 *692:15 9.52587e-05
17 *653:15 *695:5 3.16213e-05
18 *653:19 *654:11 0.000360582
19 *653:21 *659:18 0.0680998
20 *653:21 *663:15 9.44436e-05
21 *802:A0[5] *802:A0[7] 0.000191264
22 *802:A0[6] *802:A0[7] 0.00486205
23 *61:13 *653:19 0
24 *79:10 *653:15 0.00139977
25 *102:29 *802:A0[7] 0.000487
26 *139:21 *653:15 7.7924e-05
27 *140:13 *802:A0[7] 0
28 *646:21 *653:21 0.0656568
29 *647:21 *653:21 3.22574e-05
30 *651:16 *653:15 0.00564843
31 *652:9 *653:15 0.0312379
32 *652:9 *653:19 1.41896e-05
*RES
1 *803:mem_addr[7] *653:5 100.522 
2 *653:5 *653:15 48.985 
3 *653:15 *653:19 1.87813 
4 *653:19 *653:21 765.105 
5 *653:21 *802:A0[7] 9.19533 
*END

*D_NET *654 0.236297
*CONN
*I *802:A0[8] I *D DFFRAM512x32
*I *803:mem_addr[8] O *D memory_macro
*CAP
1 *802:A0[8] 0.000686724
2 *803:mem_addr[8] 0.00569747
3 *654:13 0.0114186
4 *654:11 0.0168559
5 *654:5 0.0118216
6 *802:A0[8] *657:24 0.00239725
7 *802:A0[8] *659:10 0.000583576
8 *802:A0[8] *659:16 0.00051891
9 *802:A0[8] *675:14 0.00034871
10 *802:A0[8] *679:19 0.000319625
11 *802:A0[8] *680:19 0.000191584
12 *654:11 *689:11 0.0175871
13 *802:A0[7] *802:A0[8] 0.00051169
14 *61:13 *654:11 0
15 *79:10 *654:11 0.000179357
16 *79:32 *654:11 3.92756e-05
17 *650:10 *654:13 0.0682144
18 *651:16 *654:11 0.0034646
19 *652:9 *654:11 0.000170137
20 *652:13 *654:13 0.0682144
21 *653:15 *654:11 0.0267157
22 *653:19 *654:11 0.000360582
*RES
1 *803:mem_addr[8] *654:5 101.033 
2 *654:5 *654:11 41.242 
3 *654:11 *654:13 764.595 
4 *654:13 *802:A0[8] 4.76707 
*END

*D_NET *655 0.0389566
*CONN
*I *802:EN0 I *D DFFRAM512x32
*I *803:mem_en O *D memory_macro
*CAP
1 *802:EN0 0.00471379
2 *803:mem_en 0.00103569
3 *655:11 0.0184426
4 *655:7 0.0147645
5 *655:11 *667:14 0
6 *41:5 *655:11 0
*RES
1 *803:mem_en *655:7 17.8925 
2 *655:7 *655:11 34.7405 
3 *655:11 *802:EN0 84.7125 
*END

*D_NET *656 0.150557
*CONN
*I *803:mem_rdata[0] I *D memory_macro
*I *802:Do0[0] O *D DFFRAM512x32
*CAP
1 *803:mem_rdata[0] 0.00156959
2 *802:Do0[0] 0.000322617
3 *656:16 0.0198802
4 *656:10 0.0573875
5 *656:8 0.0393996
6 *656:8 *685:12 0.000558736
7 *656:10 *687:18 0.0308798
8 *656:16 *667:14 0
9 *102:19 *656:8 0.000558736
*RES
1 *802:Do0[0] *656:8 2.58207 
2 *656:8 *656:10 141.555 
3 *656:10 *656:16 47.7387 
4 *656:16 *803:mem_rdata[0] 27.5925 
*END

*D_NET *657 0.388595
*CONN
*I *803:mem_rdata[10] I *D memory_macro
*I *802:Do0[10] O *D DFFRAM512x32
*CAP
1 *803:mem_rdata[10] 0.00590499
2 *802:Do0[10] 0.00385068
3 *657:26 0.0182145
4 *657:24 0.0131257
5 *657:10 0.0129128
6 *657:8 0.0159472
7 *803:mem_rdata[10] *803:mem_rdata[11] 0.014342
8 *803:mem_rdata[10] *803:mem_rdata[12] 0.00174065
9 *803:mem_rdata[10] *803:mem_rdata[13] 0.00606017
10 *657:8 *658:8 0.00197009
11 *657:8 *658:10 0.000143344
12 *657:8 *659:8 0.00156925
13 *657:8 *659:10 0.00216943
14 *657:10 *659:10 0.0605748
15 *657:10 *664:6 0.0542082
16 *657:10 *675:14 0.00116322
17 *657:10 *679:11 0.00342106
18 *657:10 *679:17 0.000961594
19 *657:10 *679:19 0.0010717
20 *657:10 *680:17 0.000491406
21 *657:24 *659:10 0.000146215
22 *657:24 *659:16 0.000918358
23 *657:24 *664:26 0.000435393
24 *657:24 *675:24 6.72143e-05
25 *657:26 *662:15 0.0771151
26 *802:A0[7] *657:10 1.81028e-05
27 *802:A0[7] *657:24 0.00176986
28 *802:A0[8] *657:24 0.00239725
29 *102:21 *657:8 0.00188252
30 *102:21 *657:10 0
31 *102:29 *657:10 0.00531602
32 *102:29 *657:24 0.000376205
33 *140:13 *657:8 0
34 *650:6 *803:mem_rdata[10] 0.00110639
35 *650:10 *657:26 0.0772037
*RES
1 *802:Do0[10] *657:8 16.365 
2 *657:8 *657:10 92.2741 
3 *657:10 *657:24 6.87467 
4 *657:24 *657:26 867.105 
5 *657:26 *803:mem_rdata[10] 30.5048 
*END

*D_NET *658 0.247023
*CONN
*I *803:mem_rdata[11] I *D memory_macro
*I *802:Do0[11] O *D DFFRAM512x32
*CAP
1 *803:mem_rdata[11] 0.00282501
2 *802:Do0[11] 0.000772289
3 *658:14 0.0573077
4 *658:12 0.0544827
5 *658:10 0.0153474
6 *658:8 0.0161197
7 *803:mem_rdata[11] *803:mem_rdata[12] 0.0114438
8 *658:10 *659:8 0.000668282
9 *658:10 *659:10 0.0391471
10 *658:10 *659:16 0.000101435
11 *658:10 *677:33 0.00116174
12 *658:14 *802:Di0[0] 0
13 *803:mem_rdata[10] *803:mem_rdata[11] 0.014342
14 *140:13 *658:8 0
15 *140:13 *658:10 0.029604
16 *650:6 *803:mem_rdata[11] 0.00158669
17 *657:8 *658:8 0.00197009
18 *657:8 *658:10 0.000143344
*RES
1 *802:Do0[11] *658:8 3.77687 
2 *658:8 *658:10 102.82 
3 *658:10 *658:12 0.5 
4 *658:12 *658:14 146.206 
5 *658:14 *803:mem_rdata[11] 22.9171 
*END

*D_NET *659 0.35316
*CONN
*I *803:mem_rdata[12] I *D memory_macro
*I *802:Do0[12] O *D DFFRAM512x32
*CAP
1 *803:mem_rdata[12] 0.00269636
2 *802:Do0[12] 0.000401265
3 *659:18 0.0169791
4 *659:16 0.0152682
5 *659:10 0.0137047
6 *659:8 0.0131205
7 *803:mem_rdata[12] *803:mem_rdata[13] 0.000170271
8 *803:mem_rdata[12] *803:mem_rdata[16] 0.0021037
9 *803:mem_rdata[12] *701:8 0.00021769
10 *659:10 *677:31 0.00230238
11 *659:10 *677:33 0.00105451
12 *659:10 *679:19 0.000256764
13 *659:10 *680:11 0.00554081
14 *659:10 *680:19 0.00165184
15 *659:16 *677:33 0.000421282
16 *659:18 *663:15 0.0772233
17 *802:A0[7] *659:16 0.000113269
18 *802:A0[8] *659:10 0.000583576
19 *802:A0[8] *659:16 0.00051891
20 *803:mem_rdata[10] *803:mem_rdata[12] 0.00174065
21 *803:mem_rdata[11] *803:mem_rdata[12] 0.0114438
22 *140:13 *659:16 0.000693663
23 *650:6 *803:mem_rdata[12] 0.0115589
24 *653:21 *659:18 0.0680998
25 *657:8 *659:8 0.00156925
26 *657:8 *659:10 0.00216943
27 *657:10 *659:10 0.0605748
28 *657:24 *659:10 0.000146215
29 *657:24 *659:16 0.000918358
30 *658:10 *659:8 0.000668282
31 *658:10 *659:10 0.0391471
32 *658:10 *659:16 0.000101435
*RES
1 *802:Do0[12] *659:8 3.02193 
2 *659:8 *659:10 99.674 
3 *659:10 *659:16 4.3038 
4 *659:16 *659:18 866.085 
5 *659:18 *803:mem_rdata[12] 22.1761 
*END

*D_NET *660 0.319424
*CONN
*I *803:mem_rdata[13] I *D memory_macro
*I *802:Do0[13] O *D DFFRAM512x32
*CAP
1 *803:mem_rdata[13] 0.00330175
2 *802:Do0[13] 0.000158976
3 *660:15 0.0244152
4 *660:13 0.0211134
5 *660:11 0.0136591
6 *660:9 0.0138181
7 *803:mem_rdata[13] *803:mem_rdata[14] 0.00752314
8 *803:mem_rdata[13] *723:9 1.00909e-05
9 *660:11 *661:11 0.0640227
10 *660:11 *676:15 0.000274383
11 *660:11 *677:19 0.00849728
12 *660:15 *661:15 0
13 *660:15 *675:26 0.00544773
14 *660:15 *701:10 0.0223313
15 *802:A0[0] *660:11 7.80775e-05
16 *802:A0[1] *660:11 0.000376825
17 *802:A0[2] *660:11 0.00030908
18 *802:A0[4] *660:11 0.0117584
19 *802:A0[5] *660:11 8.54041e-05
20 *803:mem_rdata[10] *803:mem_rdata[13] 0.00606017
21 *803:mem_rdata[12] *803:mem_rdata[13] 0.000170271
22 *102:21 *660:11 0.0374154
23 *648:27 *660:15 0.00301781
24 *648:29 *660:15 0.0648047
25 *649:21 *660:15 6.14647e-05
26 *650:6 *803:mem_rdata[13] 4.21127e-05
27 *650:10 *660:15 0
28 *651:18 *660:15 0.0106712
*RES
1 *802:Do0[13] *660:9 3.2225 
2 *660:9 *660:11 101.422 
3 *660:11 *660:13 0.5 
4 *660:13 *660:15 871.185 
5 *660:15 *803:mem_rdata[13] 19.0189 
*END

*D_NET *661 0.341793
*CONN
*I *803:mem_rdata[14] I *D memory_macro
*I *802:Do0[14] O *D DFFRAM512x32
*CAP
1 *803:mem_rdata[14] 0.00296191
2 *802:Do0[14] 0.000197303
3 *661:15 0.0231271
4 *661:13 0.0201652
5 *661:11 0.0114761
6 *661:9 0.0116734
7 *803:mem_rdata[14] *803:mem_rdata[15] 0.00469066
8 *803:mem_rdata[14] *803:mem_rdata[16] 0.000421231
9 *661:11 *662:11 0.0632484
10 *661:11 *669:11 0.000325195
11 *661:15 *663:15 0.0776123
12 *661:15 *701:10 0.023537
13 *802:A0[5] *661:11 5.42697e-05
14 *803:mem_rdata[13] *803:mem_rdata[14] 0.00752314
15 *36:19 *661:11 0.0153555
16 *650:6 *803:mem_rdata[14] 8.02886e-05
17 *651:18 *661:15 0.0153212
18 *660:11 *661:11 0.0640227
19 *660:15 *661:15 0
*RES
1 *802:Do0[14] *661:9 3.7325 
2 *661:9 *661:11 98.1591 
3 *661:11 *661:13 0.5 
4 *661:13 *661:15 870.165 
5 *661:15 *803:mem_rdata[14] 16.3887 
*END

*D_NET *662 0.304911
*CONN
*I *803:mem_rdata[15] I *D memory_macro
*I *802:Do0[15] O *D DFFRAM512x32
*CAP
1 *803:mem_rdata[15] 0.00253364
2 *802:Do0[15] 0.000228112
3 *662:15 0.0247292
4 *662:13 0.0221955
5 *662:11 0.01029
6 *662:9 0.0105181
7 *662:11 *663:11 0.00707057
8 *662:11 *669:11 0.0486135
9 *662:15 *674:18 0
10 *662:15 *695:5 0.0189764
11 *803:mem_rdata[14] *803:mem_rdata[15] 0.00469066
12 *36:19 *662:11 0.0144288
13 *79:32 *662:15 1.79536e-05
14 *650:6 *803:mem_rdata[15] 0.000102291
15 *650:10 *662:15 0.000153145
16 *657:26 *662:15 0.0771151
17 *661:11 *662:11 0.0632484
*RES
1 *802:Do0[15] *662:9 4.2425 
2 *662:9 *662:11 93.7308 
3 *662:11 *662:13 0.5 
4 *662:13 *662:15 869.655 
5 *662:15 *803:mem_rdata[15] 11.4132 
*END

*D_NET *663 0.349548
*CONN
*I *803:mem_rdata[16] I *D memory_macro
*I *802:Do0[16] O *D DFFRAM512x32
*CAP
1 *803:mem_rdata[16] 0.000469259
2 *802:Do0[16] 0.000306356
3 *663:15 0.0128856
4 *663:13 0.0124164
5 *663:11 0.0105851
6 *663:9 0.0108915
7 *663:11 *665:11 0.00140942
8 *663:11 *666:11 0.0540692
9 *663:11 *669:11 0.0492126
10 *803:mem_rdata[12] *803:mem_rdata[16] 0.0021037
11 *803:mem_rdata[14] *803:mem_rdata[16] 0.000421231
12 *36:19 *663:11 0.014029
13 *650:6 *803:mem_rdata[16] 0.00161642
14 *651:18 *663:15 0.017132
15 *653:21 *663:15 9.44436e-05
16 *659:18 *663:15 0.0772233
17 *661:15 *663:15 0.0776123
18 *662:11 *663:11 0.00707057
*RES
1 *802:Do0[16] *663:9 5.4275 
2 *663:9 *663:11 91.0505 
3 *663:11 *663:13 0.5 
4 *663:13 *663:15 872.205 
5 *663:15 *803:mem_rdata[16] 4.24267 
*END

*D_NET *664 0.259612
*CONN
*I *803:mem_rdata[17] I *D memory_macro
*I *802:Do0[17] O *D DFFRAM512x32
*CAP
1 *803:mem_rdata[17] 0.0307711
2 *802:Do0[17] 0
3 *664:28 0.0307711
4 *664:26 0.0019139
5 *664:6 0.0143557
6 *664:4 0.0124418
7 *803:mem_rdata[17] *677:37 0.0726248
8 *664:6 *674:10 0.030598
9 *664:6 *676:17 0.000501678
10 *664:6 *680:19 0.000252512
11 *664:26 *675:24 6.65903e-05
12 *664:26 *676:17 0.00184756
13 *664:26 *676:23 0
14 *664:26 *677:33 0
15 *664:26 *680:25 0
16 *802:A0[6] *664:6 0.000114187
17 *802:A0[7] *664:6 0.00205068
18 *102:21 *664:6 0.00388842
19 *102:29 *664:6 0.000611364
20 *102:29 *664:26 0.00184543
21 *140:13 *664:26 0.000313417
22 *657:10 *664:6 0.0542082
23 *657:24 *664:26 0.000435393
*RES
1 *802:Do0[17] *664:4 0.5 
2 *664:4 *664:6 82.6019 
3 *664:6 *664:26 49.4525 
4 *664:26 *664:28 2 
5 *664:28 *803:mem_rdata[17] 862.08 
*END

*D_NET *665 0.246377
*CONN
*I *803:mem_rdata[18] I *D memory_macro
*I *802:Do0[18] O *D DFFRAM512x32
*CAP
1 *803:mem_rdata[18] 0.0344212
2 *802:Do0[18] 0.000352682
3 *665:13 0.0344212
4 *665:11 0.0152748
5 *665:9 0.0156275
6 *803:mem_rdata[18] *707:13 0.0593187
7 *665:11 *666:11 0.0578765
8 *665:11 *668:11 0
9 *665:11 *670:11 0
10 *665:11 *671:11 0
11 *665:11 *672:11 0.000575329
12 *665:11 *673:11 0.0136698
13 *36:19 *665:11 0.0134298
14 *37:9 *665:11 0
15 *663:11 *665:11 0.00140942
*RES
1 *802:Do0[18] *665:9 6.2825 
2 *665:9 *665:11 89.3608 
3 *665:11 *665:13 0.5 
4 *665:13 *803:mem_rdata[18] 872.153 
*END

*D_NET *666 0.246532
*CONN
*I *803:mem_rdata[19] I *D memory_macro
*I *802:Do0[19] O *D DFFRAM512x32
*CAP
1 *803:mem_rdata[19] 0.0480454
2 *802:Do0[19] 0.000324965
3 *666:13 0.0480454
4 *666:11 0.00956095
5 *666:9 0.00988592
6 *666:11 *669:11 0.00392953
7 *666:11 *673:11 0.000672015
8 *36:19 *666:11 0.0141221
9 *663:11 *666:11 0.0540692
10 *665:11 *666:11 0.0578765
*RES
1 *802:Do0[19] *666:9 5.7725 
2 *666:9 *666:11 90.1765 
3 *666:11 *666:13 0.5 
4 *666:13 *803:mem_rdata[19] 871.643 
*END

*D_NET *667 0.149801
*CONN
*I *803:mem_rdata[1] I *D memory_macro
*I *802:Do0[1] O *D DFFRAM512x32
*CAP
1 *803:mem_rdata[1] 0.00127683
2 *802:Do0[1] 7.78533e-05
3 *667:14 0.0218373
4 *667:12 0.0205605
5 *667:10 0.0527142
6 *667:8 0.052792
7 *667:8 *687:16 0.000349889
8 *667:14 *720:11 0
9 *102:19 *667:8 0.000192431
10 *655:11 *667:14 0
11 *656:16 *667:14 0
*RES
1 *802:Do0[1] *667:8 1.53327 
2 *667:8 *667:10 142.416 
3 *667:10 *667:12 0.5 
4 *667:12 *667:14 53.0315 
5 *667:14 *803:mem_rdata[1] 22.9925 
*END

*D_NET *668 0.24665
*CONN
*I *803:mem_rdata[20] I *D memory_macro
*I *802:Do0[20] O *D DFFRAM512x32
*CAP
1 *803:mem_rdata[20] 0.0360848
2 *802:Do0[20] 0.000590731
3 *668:13 0.0360848
4 *668:11 0.0101063
5 *668:9 0.010697
6 *803:mem_rdata[20] *704:13 0.0351038
7 *668:11 *670:11 0.0565624
8 *37:9 *668:11 0.0614202
9 *665:11 *668:11 0
*RES
1 *802:Do0[20] *668:9 10.3625 
2 *668:9 *668:11 90.9923 
3 *668:11 *668:13 0.5 
4 *668:13 *803:mem_rdata[20] 876.232 
*END

*D_NET *669 0.242137
*CONN
*I *803:mem_rdata[21] I *D memory_macro
*I *802:Do0[21] O *D DFFRAM512x32
*CAP
1 *803:mem_rdata[21] 0.0479698
2 *802:Do0[21] 0.000267841
3 *669:13 0.0479698
4 *669:11 0.013375
5 *669:9 0.0136428
6 *669:11 *673:11 0
7 *802:A0[7] *669:11 0
8 *36:19 *669:11 0.0168307
9 *661:11 *669:11 0.000325195
10 *662:11 *669:11 0.0486135
11 *663:11 *669:11 0.0492126
12 *666:11 *669:11 0.00392953
*RES
1 *802:Do0[21] *669:9 4.7525 
2 *669:9 *669:11 91.808 
3 *669:11 *669:13 0.5 
4 *669:13 *803:mem_rdata[21] 870.622 
*END

*D_NET *670 0.241338
*CONN
*I *803:mem_rdata[22] I *D memory_macro
*I *802:Do0[22] O *D DFFRAM512x32
*CAP
1 *803:mem_rdata[22] 0.0501801
2 *802:Do0[22] 0.00056949
3 *670:13 0.0501801
4 *670:11 0.0100815
5 *670:9 0.010651
6 *670:11 *671:11 0.0600703
7 *37:9 *670:11 0.00304341
8 *665:11 *670:11 0
9 *668:11 *670:11 0.0565624
*RES
1 *802:Do0[22] *670:9 9.8525 
2 *670:9 *670:11 92.6237 
3 *670:11 *670:13 0.5 
4 *670:13 *803:mem_rdata[22] 875.722 
*END

*D_NET *671 0.245134
*CONN
*I *803:mem_rdata[23] I *D memory_macro
*I *802:Do0[23] O *D DFFRAM512x32
*CAP
1 *803:mem_rdata[23] 0.0482229
2 *802:Do0[23] 0.000541399
3 *671:13 0.0482229
4 *671:11 0.010342
5 *671:9 0.0108834
6 *803:mem_rdata[23] *711:13 0
7 *671:11 *672:11 0.060782
8 *36:19 *671:11 0.0060691
9 *665:11 *671:11 0
10 *670:11 *671:11 0.0600703
*RES
1 *802:Do0[23] *671:9 9.3425 
2 *671:9 *671:11 93.4395 
3 *671:11 *671:13 0.5 
4 *671:13 *803:mem_rdata[23] 875.213 
*END

*D_NET *672 0.246693
*CONN
*I *803:mem_rdata[24] I *D memory_macro
*I *802:Do0[24] O *D DFFRAM512x32
*CAP
1 *803:mem_rdata[24] 0.0481863
2 *802:Do0[24] 0.000475796
3 *672:13 0.0481863
4 *672:11 0.0104032
5 *672:9 0.0108789
6 *672:11 *673:11 0.0611713
7 *36:19 *672:11 0.00603406
8 *665:11 *672:11 0.000575329
9 *671:11 *672:11 0.060782
*RES
1 *802:Do0[24] *672:9 8.1425 
2 *672:9 *672:11 94.4883 
3 *672:11 *672:13 0.5 
4 *672:13 *803:mem_rdata[24] 874.703 
*END

*D_NET *673 0.218191
*CONN
*I *803:mem_rdata[25] I *D memory_macro
*I *802:Do0[25] O *D DFFRAM512x32
*CAP
1 *803:mem_rdata[25] 0.05006
2 *802:Do0[25] 0.000485216
3 *673:13 0.05006
4 *673:11 0.0172036
5 *673:9 0.0176888
6 *36:19 *673:11 0.0071802
7 *665:11 *673:11 0.0136698
8 *666:11 *673:11 0.000672015
9 *669:11 *673:11 0
10 *672:11 *673:11 0.0611713
*RES
1 *802:Do0[25] *673:9 8.3225 
2 *673:9 *673:11 95.0709 
3 *673:11 *673:13 0.5 
4 *673:13 *803:mem_rdata[25] 874.193 
*END

*D_NET *674 0.209472
*CONN
*I *803:mem_rdata[26] I *D memory_macro
*I *802:Do0[26] O *D DFFRAM512x32
*CAP
1 *803:mem_rdata[26] 0.0244645
2 *802:Do0[26] 0.0057863
3 *674:24 0.0244645
4 *674:22 0.0148394
5 *674:20 0.0148394
6 *674:18 0.0244281
7 *674:16 0.0250344
8 *674:10 0.00639261
9 *674:10 *675:12 0.0256954
10 *674:16 *676:17 0.00428621
11 *674:18 *676:23 0
12 *674:18 *694:17 0
13 *674:18 *695:5 0
14 *802:A0[5] *674:10 0.000219934
15 *802:A0[6] *674:10 0.00215086
16 *802:A0[7] *674:16 0.00104938
17 *102:21 *674:10 0.000622253
18 *102:29 *674:16 8.9336e-05
19 *649:25 *674:16 0.00451133
20 *662:15 *674:18 0
21 *664:6 *674:10 0.030598
*RES
1 *802:Do0[26] *674:10 48.1388 
2 *674:10 *674:16 45.505 
3 *674:16 *674:18 440.49 
4 *674:18 *674:20 2 
5 *674:20 *674:22 251.265 
6 *674:22 *674:24 2 
7 *674:24 *803:mem_rdata[26] 426.54 
*END

*D_NET *675 0.279876
*CONN
*I *803:mem_rdata[27] I *D memory_macro
*I *802:Do0[27] O *D DFFRAM512x32
*CAP
1 *803:mem_rdata[27] 0.00184233
2 *802:Do0[27] 0.00501555
3 *675:30 0.0178009
4 *675:28 0.0159586
5 *675:26 0.0133594
6 *675:24 0.0137103
7 *675:14 0.00120088
8 *675:12 0.00586551
9 *675:12 *676:15 0.0208599
10 *675:14 *679:19 0.00653646
11 *675:24 *677:33 0.000320715
12 *675:24 *679:19 0.000459854
13 *675:24 *680:19 0.000232403
14 *802:A0[4] *675:12 0.00016743
15 *802:A0[5] *675:12 0.00185188
16 *802:A0[8] *675:14 0.00034871
17 *102:21 *675:12 0.000934118
18 *102:29 *675:14 0.0065353
19 *648:29 *675:26 0.0648061
20 *649:21 *675:26 0.0681094
21 *649:25 *675:12 0.00142805
22 *650:10 *675:26 0
23 *652:13 *675:26 9.24209e-05
24 *657:10 *675:14 0.00116322
25 *657:24 *675:24 6.72143e-05
26 *660:15 *675:26 0.00544773
27 *664:26 *675:24 6.65903e-05
28 *674:10 *675:12 0.0256954
*RES
1 *802:Do0[27] *675:12 43.3874 
2 *675:12 *675:14 60.135 
3 *675:14 *675:24 16.635 
4 *675:24 *675:26 832.17 
5 *675:26 *675:28 2 
6 *675:28 *675:30 272.31 
7 *675:30 *803:mem_rdata[27] 35.075 
*END

*D_NET *676 0.198244
*CONN
*I *803:mem_rdata[28] I *D memory_macro
*I *802:Do0[28] O *D DFFRAM512x32
*CAP
1 *803:mem_rdata[28] 0.0470948
2 *802:Do0[28] 0.00442778
3 *676:27 0.0470948
4 *676:25 0.0179015
5 *676:23 0.0183964
6 *676:17 0.00199864
7 *676:15 0.00593151
8 *676:15 *677:19 0.0162357
9 *676:23 *680:25 0.000805867
10 *802:A0[4] *676:15 0.00105784
11 *802:A0[6] *676:17 0.000514658
12 *802:A0[7] *676:17 0.000911148
13 *102:21 *676:15 0.00107114
14 *102:29 *676:17 0.0042336
15 *649:25 *676:17 0.00279902
16 *660:11 *676:15 0.000274383
17 *664:6 *676:17 0.000501678
18 *664:26 *676:17 0.00184756
19 *664:26 *676:23 0
20 *674:16 *676:17 0.00428621
21 *674:18 *676:23 0
22 *675:12 *676:15 0.0208599
*RES
1 *802:Do0[28] *676:15 36.9366 
2 *676:15 *676:17 83.25 
3 *676:17 *676:23 14.815 
4 *676:23 *676:25 305.775 
5 *676:25 *676:27 2 
6 *676:27 *803:mem_rdata[28] 855.96 
*END

*D_NET *677 0.225501
*CONN
*I *803:mem_rdata[29] I *D memory_macro
*I *802:Do0[29] O *D DFFRAM512x32
*CAP
1 *803:mem_rdata[29] 0.00280607
2 *802:Do0[29] 0.00404127
3 *677:43 0.00280607
4 *677:41 0.0183715
5 *677:39 0.0183715
6 *677:37 0.0282068
7 *677:35 0.0282068
8 *677:33 0.00397584
9 *677:31 0.00585364
10 *677:19 0.00591908
11 *677:19 *680:17 9.03508e-06
12 *677:31 *680:17 0.00129328
13 *677:31 *680:19 0.00147067
14 *677:33 *679:19 0
15 *677:33 *680:19 0.000786964
16 *802:A0[0] *677:19 7.80775e-05
17 *802:A0[1] *677:19 0.000376825
18 *802:A0[2] *677:19 0.00030908
19 *803:mem_rdata[17] *677:37 0.0726248
20 *658:10 *677:33 0.00116174
21 *659:10 *677:31 0.00230238
22 *659:10 *677:33 0.00105451
23 *659:16 *677:33 0.000421282
24 *660:11 *677:19 0.00849728
25 *664:26 *677:33 0
26 *675:24 *677:33 0.000320715
27 *676:15 *677:19 0.0162357
*RES
1 *802:Do0[29] *677:19 32.6463 
2 *677:19 *677:31 48.2175 
3 *677:31 *677:33 75.1425 
4 *677:33 *677:35 2 
5 *677:35 *677:37 815.595 
6 *677:37 *677:39 2 
7 *677:39 *677:41 314.4 
8 *677:41 *677:43 2 
9 *677:43 *803:mem_rdata[29] 48.63 
*END

*D_NET *678 0.154678
*CONN
*I *803:mem_rdata[2] I *D memory_macro
*I *802:Do0[2] O *D DFFRAM512x32
*CAP
1 *803:mem_rdata[2] 0.00213717
2 *802:Do0[2] 4.46791e-05
3 *678:14 0.0238203
4 *678:12 0.0216831
5 *678:10 0.0517268
6 *678:8 0.0517715
7 *678:8 *685:12 0.00023435
8 *678:8 *687:16 0.00023435
9 *678:10 *684:10 0
10 *678:14 *721:11 0.00302559
11 *30:17 *678:14 0
*RES
1 *802:Do0[2] *678:8 1.35847 
2 *678:8 *678:10 139.746 
3 *678:10 *678:12 0.5 
4 *678:12 *678:14 59.0913 
5 *678:14 *803:mem_rdata[2] 38.8025 
*END

*D_NET *679 0.202367
*CONN
*I *803:mem_rdata[30] I *D memory_macro
*I *802:Do0[30] O *D DFFRAM512x32
*CAP
1 *803:mem_rdata[30] 0.00297793
2 *802:Do0[30] 9.14177e-05
3 *679:29 0.00297793
4 *679:27 0.0190824
5 *679:25 0.0190824
6 *679:23 0.0405237
7 *679:21 0.0405237
8 *679:19 0.00192659
9 *679:17 0.00251581
10 *679:11 0.00305112
11 *679:9 0.00255332
12 *679:11 *680:11 0.0107219
13 *679:17 *680:11 0.000335936
14 *679:17 *680:17 0.0022421
15 *679:17 *680:19 0.000656405
16 *679:19 *680:19 0.00790229
17 *802:A0[8] *679:19 0.000319625
18 *61:9 *679:23 0.0183354
19 *102:29 *679:11 0.00764956
20 *102:29 *679:17 0.00394927
21 *102:29 *679:19 0.00224084
22 *657:10 *679:11 0.00342106
23 *657:10 *679:17 0.000961594
24 *657:10 *679:19 0.0010717
25 *659:10 *679:19 0.000256764
26 *675:14 *679:19 0.00653646
27 *675:24 *679:19 0.000459854
28 *677:33 *679:19 0
*RES
1 *802:Do0[30] *679:9 3.32 
2 *679:9 *679:11 119.647 
3 *679:11 *679:17 37.05 
4 *679:17 *679:19 95.8425 
5 *679:19 *679:21 2 
6 *679:21 *679:23 812.025 
7 *679:23 *679:25 2 
8 *679:25 *679:27 335.445 
9 *679:27 *679:29 2 
10 *679:29 *803:mem_rdata[30] 53.73 
*END

*D_NET *680 0.185919
*CONN
*I *803:mem_rdata[31] I *D memory_macro
*I *802:Do0[31] O *D DFFRAM512x32
*CAP
1 *803:mem_rdata[31] 0.0467831
2 *802:Do0[31] 7.13005e-05
3 *680:29 0.0467831
4 *680:27 0.0218992
5 *680:25 0.0225999
6 *680:19 0.00285099
7 *680:17 0.00253895
8 *680:11 0.00406262
9 *680:9 0.00374531
10 *802:A0[8] *680:19 0.000191584
11 *657:10 *680:17 0.000491406
12 *659:10 *680:11 0.00554081
13 *659:10 *680:19 0.00165184
14 *664:6 *680:19 0.000252512
15 *664:26 *680:25 0
16 *675:24 *680:19 0.000232403
17 *676:23 *680:25 0.000805867
18 *677:19 *680:17 9.03508e-06
19 *677:31 *680:17 0.00129328
20 *677:31 *680:19 0.00147067
21 *677:33 *680:19 0.000786964
22 *679:11 *680:11 0.0107219
23 *679:17 *680:11 0.000335936
24 *679:17 *680:17 0.0022421
25 *679:17 *680:19 0.000656405
26 *679:19 *680:19 0.00790229
*RES
1 *802:Do0[31] *680:9 2.975 
2 *680:9 *680:11 103.95 
3 *680:11 *680:17 21.3525 
4 *680:17 *680:19 83.0775 
5 *680:19 *680:25 18.64 
6 *680:25 *680:27 384.78 
7 *680:27 *680:29 2 
8 *680:29 *803:mem_rdata[31] 850.86 
*END

*D_NET *681 0.319498
*CONN
*I *803:mem_rdata[3] I *D memory_macro
*I *802:Do0[3] O *D DFFRAM512x32
*CAP
1 *803:mem_rdata[3] 0
2 *802:Do0[3] 0.0017361
3 *681:27 0.00980375
4 *681:25 0.0110164
5 *681:13 0.0301039
6 *681:11 0.0306274
7 *681:11 *682:8 0.00865692
8 *681:11 *683:13 0.00862109
9 *681:13 *803:cpu_mem_wdata[21] 0
10 *681:13 *683:15 0.0749057
11 *681:25 *683:23 0.0024977
12 *681:27 *682:14 0.0505661
13 *804:io_in[2] *681:13 0.00101427
14 *90:11 *681:13 0.000257753
15 *102:9 *681:13 0.0170676
16 *529:28 *681:27 0.0111952
17 *562:27 *681:27 0.012214
18 *584:19 *681:27 0.048892
19 *588:35 *681:27 0.000321648
*RES
1 *802:Do0[3] *681:11 14.662 
2 *681:11 *681:13 838.672 
3 *681:13 *681:25 34.6125 
4 *681:25 *681:27 77.2413 
5 *681:27 *803:mem_rdata[3] 0.5 
*END

*D_NET *682 0.27422
*CONN
*I *803:mem_rdata[4] I *D memory_macro
*I *802:Do0[4] O *D DFFRAM512x32
*CAP
1 *803:mem_rdata[4] 0
2 *802:Do0[4] 0.00272036
3 *682:14 0.0115711
4 *682:12 0.0115711
5 *682:10 0.0448869
6 *682:8 0.0476073
7 *682:8 *683:13 0.00132265
8 *682:8 *684:8 0.00535603
9 *682:8 *685:12 0.00447873
10 *682:10 *803:cpu_mem_wdata[21] 0
11 *682:10 *748:15 0
12 *682:14 *803:cpu_mem_wdata[22] 0.00329918
13 *682:14 *683:25 0.000163692
14 *682:14 *684:14 0.0506766
15 *682:14 *687:28 0.00266165
16 *682:14 *723:9 0
17 *100:17 *682:10 0.00291174
18 *101:9 *682:10 0.0079055
19 *102:19 *682:8 0.000223176
20 *138:25 *682:10 0.000147293
21 *139:15 *682:10 0.000265128
22 *139:17 *682:10 0.0130493
23 *140:13 *682:8 0
24 *529:28 *682:14 0.000972337
25 *562:27 *682:14 0.00089637
26 *584:19 *682:14 0.000316824
27 *588:35 *682:14 0.000544083
28 *650:6 *682:14 0.00145015
29 *681:11 *682:8 0.00865692
30 *681:27 *682:14 0.0505661
*RES
1 *802:Do0[4] *682:8 18.7511 
2 *682:8 *682:10 868.125 
3 *682:10 *682:12 0.5 
4 *682:12 *682:14 86.9719 
5 *682:14 *803:mem_rdata[4] 0.5 
*END

*D_NET *683 0.314903
*CONN
*I *803:mem_rdata[5] I *D memory_macro
*I *802:Do0[5] O *D DFFRAM512x32
*CAP
1 *803:mem_rdata[5] 0
2 *802:Do0[5] 0.00484463
3 *683:25 0.0209669
4 *683:23 0.0223114
5 *683:15 0.0302887
6 *683:13 0.0337888
7 *683:13 *684:8 0.000858894
8 *683:23 *803:cpu_mem_wdata[21] 0
9 *683:25 *803:cpu_mem_wdata[22] 0.00272431
10 *683:25 *684:14 0.0550412
11 *683:25 *687:28 0.0026614
12 *683:25 *687:30 0.0235118
13 *683:25 *749:13 0.0017885
14 *683:25 *750:11 0.00165783
15 *683:25 *751:11 0.0024575
16 *683:25 *754:29 0.0113275
17 *804:io_in[2] *683:15 0.00101427
18 *102:9 *683:15 0.00800333
19 *102:21 *683:13 0.00414481
20 *681:11 *683:13 0.00862109
21 *681:13 *683:15 0.0749057
22 *681:25 *683:23 0.0024977
23 *682:8 *683:13 0.00132265
24 *682:14 *683:25 0.000163692
*RES
1 *802:Do0[5] *683:13 23.304 
2 *683:13 *683:15 839.565 
3 *683:15 *683:23 32.105 
4 *683:23 *683:25 92.7403 
5 *683:25 *803:mem_rdata[5] 0.5 
*END

*D_NET *684 0.267929
*CONN
*I *803:mem_rdata[6] I *D memory_macro
*I *802:Do0[6] O *D DFFRAM512x32
*CAP
1 *803:mem_rdata[6] 0
2 *802:Do0[6] 0.00214468
3 *684:14 0.0123802
4 *684:12 0.0123802
5 *684:10 0.0547103
6 *684:8 0.056855
7 *684:8 *685:12 0.0101161
8 *684:14 *687:30 0.00193876
9 *102:21 *684:8 0.000682072
10 *650:6 *684:14 0.00474448
11 *651:16 *684:14 4.43752e-05
12 *678:10 *684:10 0
13 *682:8 *684:8 0.00535603
14 *682:14 *684:14 0.0506766
15 *683:13 *684:8 0.000858894
16 *683:25 *684:14 0.0550412
*RES
1 *802:Do0[6] *684:8 16.3913 
2 *684:8 *684:10 146.637 
3 *684:10 *684:12 0.5 
4 *684:12 *684:14 90.6718 
5 *684:14 *803:mem_rdata[6] 0.5 
*END

*D_NET *685 0.273888
*CONN
*I *803:mem_rdata[7] I *D memory_macro
*I *802:Do0[7] O *D DFFRAM512x32
*CAP
1 *803:mem_rdata[7] 0.000419255
2 *802:Do0[7] 0.00361936
3 *685:18 0.033686
4 *685:16 0.0332668
5 *685:14 0.0447811
6 *685:12 0.0484005
7 *685:12 *687:16 0.0143378
8 *685:18 *803:cpu_mem_wdata[23] 0.00462151
9 *685:18 *723:9 0
10 *685:18 *754:29 0
11 *685:18 *757:9 0.00558979
12 *685:18 *758:9 0.0114977
13 *685:18 *790:19 0.0285494
14 *803:wbs_adr_i[12] *685:18 0
15 *64:17 *685:14 0.0210872
16 *102:19 *685:12 0.000173001
17 *102:21 *685:12 0.000429428
18 *128:19 *685:14 0
19 *531:14 *685:18 0
20 *545:19 *685:18 0
21 *546:19 *685:18 0
22 *552:21 *685:18 0.00804171
23 *609:17 *685:18 0
24 *656:8 *685:12 0.000558736
25 *678:8 *685:12 0.00023435
26 *682:8 *685:12 0.00447873
27 *684:8 *685:12 0.0101161
*RES
1 *802:Do0[7] *685:12 27.1579 
2 *685:12 *685:14 145.173 
3 *685:14 *685:16 0.5 
4 *685:16 *685:18 104.306 
5 *685:18 *803:mem_rdata[7] 7.6925 
*END

*D_NET *686 0.266013
*CONN
*I *803:mem_rdata[8] I *D memory_macro
*I *802:Do0[8] O *D DFFRAM512x32
*CAP
1 *803:mem_rdata[8] 0.0516585
2 *802:Do0[8] 0.00445337
3 *686:18 0.113607
4 *686:16 0.0664016
5 *803:mem_rdata[8] *687:30 0.00020538
6 *803:mem_rdata[8] *752:25 0.00418898
7 *803:mem_rdata[8] *753:25 0.00327263
8 *803:mem_rdata[8] *754:29 0.00273363
9 *686:16 *687:16 0.00630045
10 *686:18 *687:18 0
11 *102:19 *686:16 0.00606411
12 *102:21 *686:16 0.000405192
13 *140:13 *686:16 0.00656661
14 *650:6 *803:mem_rdata[8] 0.0001555
*RES
1 *802:Do0[8] *686:16 28.7659 
2 *686:16 *686:18 146.637 
3 *686:18 *803:mem_rdata[8] 13.3262 
*END

*D_NET *687 0.258512
*CONN
*I *803:mem_rdata[9] I *D memory_macro
*I *802:Do0[9] O *D DFFRAM512x32
*CAP
1 *803:mem_rdata[9] 9.82481e-05
2 *802:Do0[9] 0.00579667
3 *687:30 0.0354645
4 *687:28 0.0359704
5 *687:18 0.0418664
6 *687:16 0.047059
7 *687:30 *751:11 0.00428736
8 *687:30 *754:29 0.00104459
9 *803:mem_rdata[8] *687:30 0.00020538
10 *102:19 *687:16 0.00384364
11 *102:21 *687:16 0
12 *140:13 *687:16 0
13 *529:28 *687:30 0
14 *656:10 *687:18 0.0308798
15 *667:8 *687:16 0.000349889
16 *678:8 *687:16 0.00023435
17 *682:14 *687:28 0.00266165
18 *683:25 *687:28 0.0026614
19 *683:25 *687:30 0.0235118
20 *684:14 *687:30 0.00193876
21 *685:12 *687:16 0.0143378
22 *686:16 *687:16 0.00630045
23 *686:18 *687:18 0
*RES
1 *802:Do0[9] *687:16 32.0675 
2 *687:16 *687:18 146.551 
3 *687:18 *687:28 7.83003 
4 *687:28 *687:30 642.495 
5 *687:30 *803:mem_rdata[9] 3.665 
*END

*D_NET *688 0.09292
*CONN
*I *802:Di0[0] I *D DFFRAM512x32
*I *803:mem_wdata[0] O *D memory_macro
*CAP
1 *802:Di0[0] 0.00229792
2 *803:mem_wdata[0] 0.00502094
3 *688:9 0.037668
4 *688:7 0.0353701
5 *688:5 0.00502094
6 *802:Di0[0] *693:13 0.00084461
7 *802:Di0[0] *694:15 0.00084461
8 *688:9 *693:11 0.00505301
9 *688:9 *710:9 0
10 *63:13 *802:Di0[0] 0.000399925
11 *137:15 *802:Di0[0] 0.000399925
12 *658:14 *802:Di0[0] 0
*RES
1 *803:mem_wdata[0] *688:5 89.8125 
2 *688:5 *688:7 0.5 
3 *688:7 *688:9 96.0906 
4 *688:9 *802:Di0[0] 16.1004 
*END

*D_NET *689 0.103858
*CONN
*I *802:Di0[10] I *D DFFRAM512x32
*I *803:mem_wdata[10] O *D memory_macro
*CAP
1 *802:Di0[10] 0.000246616
2 *803:mem_wdata[10] 0.00574234
3 *689:13 0.0048083
4 *689:11 0.00796924
5 *689:5 0.0091499
6 *689:11 *690:11 0.0145149
7 *689:13 *802:Di0[3] 0.00188715
8 *689:13 *690:13 0.00116698
9 *689:13 *695:5 0
10 *689:13 *718:13 0.0182326
11 *689:13 *719:13 0.0204153
12 *61:13 *689:11 0
13 *649:19 *689:11 0.000636113
14 *651:16 *689:11 0.00150166
15 *654:11 *689:11 0.0175871
*RES
1 *803:mem_wdata[10] *689:5 101.543 
2 *689:5 *689:11 27.1415 
3 *689:11 *689:13 251.535 
4 *689:13 *802:Di0[10] 0.930667 
*END

*D_NET *690 0.108166
*CONN
*I *802:Di0[11] I *D DFFRAM512x32
*I *803:mem_wdata[11] O *D memory_macro
*CAP
1 *802:Di0[11] 0.000167682
2 *803:mem_wdata[11] 0.00577007
3 *690:13 0.00459766
4 *690:11 0.00735926
5 *690:5 0.00869935
6 *690:11 *691:11 0.011541
7 *690:13 *802:Di0[4] 0.00243066
8 *690:13 *691:13 0.0245386
9 *690:13 *694:15 1.74629e-05
10 *690:13 *695:5 0
11 *690:13 *719:13 0.0203717
12 *61:13 *690:11 0
13 *647:17 *690:11 0.0032636
14 *648:17 *690:11 0.00240833
15 *651:16 *690:11 0.00131854
16 *689:11 *690:11 0.0145149
17 *689:13 *690:13 0.00116698
*RES
1 *803:mem_wdata[11] *690:5 102.052 
2 *690:5 *690:11 22.5967 
3 *690:11 *690:13 275.505 
4 *690:13 *802:Di0[11] 0.7584 
*END

*D_NET *691 0.100423
*CONN
*I *802:Di0[12] I *D DFFRAM512x32
*I *803:mem_wdata[12] O *D memory_macro
*CAP
1 *802:Di0[12] 0.000293843
2 *803:mem_wdata[12] 0.00580274
3 *691:13 0.00493475
4 *691:11 0.00877982
5 *691:5 0.00994166
6 *691:13 *802:Di0[1] 1.79536e-05
7 *691:13 *802:Di0[4] 0.00216316
8 *691:13 *692:21 0.0230679
9 *691:13 *694:15 0.00300141
10 *691:13 *694:17 0.000253211
11 *61:13 *691:11 0
12 *139:29 *691:11 0.0026351
13 *646:17 *691:11 0.00240833
14 *651:16 *691:11 0.00104304
15 *690:11 *691:11 0.011541
16 *690:13 *691:13 0.0245386
*RES
1 *803:mem_wdata[12] *691:5 102.562 
2 *691:5 *691:11 18.1101 
3 *691:11 *691:13 297.435 
4 *691:13 *802:Di0[12] 0.930667 
*END

*D_NET *692 0.0951093
*CONN
*I *802:Di0[13] I *D DFFRAM512x32
*I *803:mem_wdata[13] O *D memory_macro
*CAP
1 *802:Di0[13] 0.000132307
2 *803:mem_wdata[13] 0.00535644
3 *692:21 0.0049902
4 *692:19 0.00508108
5 *692:15 0.00190262
6 *692:11 0.00513157
7 *692:5 0.00880857
8 *692:5 *802:WE0[3] 0
9 *692:11 *694:15 0
10 *692:11 *710:9 0.00859856
11 *692:15 *802:Di0[2] 0.000658439
12 *692:15 *695:5 0
13 *692:15 *717:13 0.00410977
14 *692:19 *802:Di0[1] 5.83121e-06
15 *692:21 *802:Di0[4] 0.00149593
16 *692:21 *694:17 0.024455
17 *649:9 *692:11 0
18 *651:16 *692:11 0.00121982
19 *652:9 *692:11 0
20 *653:15 *692:15 9.52587e-05
21 *691:13 *692:21 0.0230679
*RES
1 *803:mem_wdata[13] *692:5 95.4225 
2 *692:5 *692:11 14.0897 
3 *692:11 *692:15 48.8975 
4 *692:15 *692:19 4.865 
5 *692:19 *692:21 282.263 
6 *692:21 *802:Di0[13] 0.7584 
*END

*D_NET *693 0.0775256
*CONN
*I *802:Di0[14] I *D DFFRAM512x32
*I *803:mem_wdata[14] O *D memory_macro
*CAP
1 *802:Di0[14] 0.000304414
2 *803:mem_wdata[14] 0.00506223
3 *693:13 0.0118439
4 *693:11 0.0137209
5 *693:5 0.0072436
6 *693:11 *710:9 0
7 *693:13 *694:15 0.00130242
8 *693:13 *694:17 0.0268712
9 *693:13 *715:13 0.00498622
10 *693:13 *719:13 0
11 *802:Di0[0] *693:13 0.00084461
12 *651:16 *693:11 0.000293
13 *688:9 *693:11 0.00505301
*RES
1 *803:mem_wdata[14] *693:5 90.3225 
2 *693:5 *693:11 9.0788 
3 *693:11 *693:13 356.595 
4 *693:13 *802:Di0[14] 0.930667 
*END

*D_NET *694 0.0899375
*CONN
*I *802:Di0[15] I *D DFFRAM512x32
*I *803:mem_wdata[15] O *D memory_macro
*CAP
1 *802:Di0[15] 0.000185697
2 *803:mem_wdata[15] 0.00558546
3 *694:17 0.00734046
4 *694:15 0.00904177
5 *694:5 0.00747246
6 *694:15 *802:Di0[4] 0.000566394
7 *694:15 *719:13 6.87171e-05
8 *694:17 *802:Di0[1] 1.87328e-05
9 *802:Di0[0] *694:15 0.00084461
10 *651:16 *694:15 0.000424836
11 *652:9 *694:15 0.00248768
12 *674:18 *694:17 0
13 *690:13 *694:15 1.74629e-05
14 *691:13 *694:15 0.00300141
15 *691:13 *694:17 0.000253211
16 *692:11 *694:15 0
17 *692:21 *694:17 0.024455
18 *693:13 *694:15 0.00130242
19 *693:13 *694:17 0.0268712
*RES
1 *803:mem_wdata[15] *694:5 99.5025 
2 *694:5 *694:15 42.5521 
3 *694:15 *694:17 334.155 
4 *694:17 *802:Di0[15] 0.844533 
*END

*D_NET *695 0.0587658
*CONN
*I *802:Di0[16] I *D DFFRAM512x32
*I *803:mem_wdata[16] O *D memory_macro
*CAP
1 *802:Di0[16] 0.0001751
2 *803:mem_wdata[16] 0.0193045
3 *695:5 0.0194796
4 *695:5 *802:Di0[2] 0.00078802
5 *695:5 *716:13 0
6 *695:5 *717:13 0
7 *695:5 *718:13 0
8 *79:32 *695:5 1.03833e-05
9 *653:15 *695:5 3.16213e-05
10 *662:15 *695:5 0.0189764
11 *674:18 *695:5 0
12 *689:13 *695:5 0
13 *690:13 *695:5 0
14 *692:15 *695:5 0
*RES
1 *803:mem_wdata[16] *695:5 495.772 
2 *695:5 *802:Di0[16] 0.956 
*END

*D_NET *696 0.0611814
*CONN
*I *802:Di0[17] I *D DFFRAM512x32
*I *803:mem_wdata[17] O *D memory_macro
*CAP
1 *802:Di0[17] 0.00198342
2 *803:mem_wdata[17] 0.0286073
3 *696:5 0.0305907
4 *137:19 *696:5 0
*RES
1 *803:mem_wdata[17] *696:5 519.232 
2 *696:5 *802:Di0[17] 5.38427 
*END

*D_NET *697 0.0675365
*CONN
*I *802:Di0[18] I *D DFFRAM512x32
*I *803:mem_wdata[18] O *D memory_macro
*CAP
1 *802:Di0[18] 0.00387119
2 *803:mem_wdata[18] 0.0298971
3 *697:5 0.0337682
*RES
1 *803:mem_wdata[18] *697:5 542.693 
2 *697:5 *802:Di0[18] 9.81253 
*END

*D_NET *698 0.0737799
*CONN
*I *802:Di0[19] I *D DFFRAM512x32
*I *803:mem_wdata[19] O *D memory_macro
*CAP
1 *802:Di0[19] 0.00570469
2 *803:mem_wdata[19] 0.0311852
3 *698:5 0.0368899
*RES
1 *803:mem_wdata[19] *698:5 566.153 
2 *698:5 *802:Di0[19] 14.2408 
*END

*D_NET *699 0.124361
*CONN
*I *802:Di0[1] I *D DFFRAM512x32
*I *803:mem_wdata[1] O *D memory_macro
*CAP
1 *802:Di0[1] 0.000582943
2 *803:mem_wdata[1] 0.00391718
3 *699:13 0.00338068
4 *699:11 0.00279774
5 *699:9 0.0229928
6 *699:7 0.0229928
7 *699:5 0.00391718
8 *802:Di0[1] *802:Di0[4] 0.000234659
9 *699:5 *802:WE0[0] 0
10 *699:13 *715:13 0.00617787
11 *106:13 *699:9 0.0573247
12 *530:14 *699:9 0
13 *691:13 *802:Di0[1] 1.79536e-05
14 *692:19 *802:Di0[1] 5.83121e-06
15 *694:17 *802:Di0[1] 1.87328e-05
*RES
1 *803:mem_wdata[1] *699:5 69.9225 
2 *699:5 *699:7 0.5 
3 *699:7 *699:9 87.5545 
4 *699:9 *699:11 0.5 
5 *699:11 *699:13 71.8875 
6 *699:13 *802:Di0[1] 7.33817 
*END

*D_NET *700 0.0791352
*CONN
*I *802:Di0[20] I *D DFFRAM512x32
*I *803:mem_wdata[20] O *D memory_macro
*CAP
1 *802:Di0[20] 0.00709098
2 *803:mem_wdata[20] 0.0324766
3 *700:5 0.0395676
*RES
1 *803:mem_wdata[20] *700:5 589.612 
2 *700:5 *802:Di0[20] 18.6691 
*END

*D_NET *701 0.104487
*CONN
*I *802:Di0[21] I *D DFFRAM512x32
*I *803:mem_wdata[21] O *D memory_macro
*CAP
1 *802:Di0[21] 0.000539992
2 *803:mem_wdata[21] 0.00852434
3 *701:10 0.0144285
4 *701:8 0.0224129
5 *803:mem_rdata[12] *701:8 0.00021769
6 *803:wbs_adr_i[27] *701:8 3.08879e-05
7 *648:27 *701:10 0.00173352
8 *651:18 *701:10 0.0107308
9 *660:15 *701:10 0.0223313
10 *661:15 *701:10 0.023537
*RES
1 *803:mem_wdata[21] *701:8 22.3636 
2 *701:8 *701:10 615.165 
3 *701:10 *802:Di0[21] 1.77173 
*END

*D_NET *702 0.0910125
*CONN
*I *802:Di0[22] I *D DFFRAM512x32
*I *803:mem_wdata[22] O *D memory_macro
*CAP
1 *802:Di0[22] 0.0104497
2 *803:mem_wdata[22] 0.0350565
3 *702:5 0.0455062
*RES
1 *803:mem_wdata[22] *702:5 636.532 
2 *702:5 *802:Di0[22] 27.5256 
*END

*D_NET *703 0.0995592
*CONN
*I *802:Di0[23] I *D DFFRAM512x32
*I *803:mem_wdata[23] O *D memory_macro
*CAP
1 *802:Di0[23] 0.0115283
2 *803:mem_wdata[23] 0.00137639
3 *703:10 0.0479146
4 *703:8 0.0377626
5 *529:28 *703:8 0.0009773
*RES
1 *803:mem_wdata[23] *703:8 4.41747 
2 *703:8 *703:10 660.555 
3 *703:10 *802:Di0[23] 28.5744 
*END

*D_NET *704 0.113637
*CONN
*I *802:Di0[24] I *D DFFRAM512x32
*I *803:mem_wdata[24] O *D memory_macro
*CAP
1 *802:Di0[24] 0.00617303
2 *803:mem_wdata[24] 0.00807189
3 *704:13 0.0311946
4 *704:11 0.0330934
5 *803:mem_rdata[20] *704:13 0.0351038
6 *531:14 *704:11 0
*RES
1 *803:mem_wdata[24] *704:11 28.2742 
2 *704:11 *704:13 676.365 
3 *704:13 *802:Di0[24] 16.3384 
*END

*D_NET *705 0.109223
*CONN
*I *802:Di0[25] I *D DFFRAM512x32
*I *803:mem_wdata[25] O *D memory_macro
*CAP
1 *802:Di0[25] 0.0151432
2 *803:mem_wdata[25] 0.000392185
3 *705:10 0.0540751
4 *705:8 0.0393242
5 *529:28 *705:8 0.000288605
*RES
1 *803:mem_wdata[25] *705:8 1.912 
2 *705:8 *705:10 706.965 
3 *705:10 *802:Di0[25] 39.9364 
*END

*D_NET *706 0.117414
*CONN
*I *802:Di0[26] I *D DFFRAM512x32
*I *803:mem_wdata[26] O *D memory_macro
*CAP
1 *802:Di0[26] 0.0179637
2 *803:mem_wdata[26] 0.000374642
3 *706:10 0.0581789
4 *706:8 0.0405899
5 *529:28 *706:8 0.000307043
*RES
1 *803:mem_wdata[26] *706:8 1.97027 
2 *706:8 *706:10 730.425 
3 *706:10 *802:Di0[26] 44.3064 
*END

*D_NET *707 0.153037
*CONN
*I *802:Di0[27] I *D DFFRAM512x32
*I *803:mem_wdata[27] O *D memory_macro
*CAP
1 *802:Di0[27] 0.00277415
2 *803:mem_wdata[27] 0.00499724
3 *707:13 0.0256571
4 *707:11 0.0390878
5 *707:5 0.0212021
6 *803:mem_rdata[18] *707:13 0.0593187
*RES
1 *803:mem_wdata[27] *707:5 89.8125 
2 *707:5 *707:11 43.0483 
3 *707:11 *707:13 664.125 
4 *707:13 *802:Di0[27] 7.65667 
*END

*D_NET *708 0.126686
*CONN
*I *802:Di0[28] I *D DFFRAM512x32
*I *803:mem_wdata[28] O *D memory_macro
*CAP
1 *802:Di0[28] 0.0141248
2 *803:mem_wdata[28] 0.00680942
3 *708:13 0.0565338
4 *708:11 0.0492184
5 *531:14 *708:11 0
*RES
1 *803:mem_wdata[28] *708:11 25.0113 
2 *708:11 *708:13 770.205 
3 *708:13 *802:Di0[28] 37.3144 
*END

*D_NET *709 0.132475
*CONN
*I *802:Di0[29] I *D DFFRAM512x32
*I *803:mem_wdata[29] O *D memory_macro
*CAP
1 *802:Di0[29] 0.0210483
2 *803:mem_wdata[29] 0.0016049
3 *709:15 0.0210483
4 *709:13 0.0435844
5 *709:11 0.0451893
6 *531:14 *709:11 0
*RES
1 *803:mem_wdata[29] *709:11 12.6156 
2 *709:11 *709:13 792.135 
3 *709:13 *709:15 0.5 
4 *709:15 *802:Di0[29] 55.1684 
*END

*D_NET *710 0.100492
*CONN
*I *802:Di0[2] I *D DFFRAM512x32
*I *803:mem_wdata[2] O *D memory_macro
*CAP
1 *802:Di0[2] 0.00362325
2 *803:mem_wdata[2] 0.00529501
3 *710:9 0.0320206
4 *710:7 0.0283974
5 *710:5 0.00529501
6 *802:Di0[2] *802:Di0[3] 0.00652375
7 *802:Di0[2] *716:13 0.00144997
8 *802:Di0[2] *717:13 0.00125033
9 *802:Di0[2] *718:13 0.00120163
10 *79:32 *802:Di0[2] 0
11 *646:9 *710:9 0
12 *647:9 *710:9 0
13 *649:9 *710:9 0
14 *651:16 *710:9 0.00538984
15 *688:9 *710:9 0
16 *692:11 *710:9 0.00859856
17 *692:15 *802:Di0[2] 0.000658439
18 *693:11 *710:9 0
19 *695:5 *802:Di0[2] 0.00078802
*RES
1 *803:mem_wdata[2] *710:5 94.9125 
2 *710:5 *710:7 0.5 
3 *710:7 *710:9 79.3098 
4 *710:9 *802:Di0[2] 13.2689 
*END

*D_NET *711 0.140071
*CONN
*I *802:Di0[30] I *D DFFRAM512x32
*I *803:mem_wdata[30] O *D memory_macro
*CAP
1 *802:Di0[30] 0.011842
2 *803:mem_wdata[30] 0.00554346
3 *711:13 0.0516672
4 *711:11 0.0526501
5 *711:5 0.0183683
6 *803:mem_rdata[23] *711:13 0
*RES
1 *803:mem_wdata[30] *711:5 100.012 
2 *711:5 *711:11 34.5413 
3 *711:11 *711:13 724.305 
4 *711:13 *802:Di0[30] 29.4484 
*END

*D_NET *712 0.144753
*CONN
*I *802:Di0[31] I *D DFFRAM512x32
*I *803:mem_wdata[31] O *D memory_macro
*CAP
1 *802:Di0[31] 0.0098753
2 *803:mem_wdata[31] 0.00125083
3 *712:13 0.0553122
4 *712:11 0.0612501
5 *712:7 0.017064
*RES
1 *803:mem_wdata[31] *712:7 22.9925 
2 *712:7 *712:11 41.9656 
3 *712:11 *712:13 825.285 
4 *712:13 *802:Di0[31] 25.9524 
*END

*D_NET *713 0.120825
*CONN
*I *802:Di0[3] I *D DFFRAM512x32
*I *803:mem_wdata[3] O *D memory_macro
*CAP
1 *802:Di0[3] 0.00434333
2 *803:mem_wdata[3] 0.00329979
3 *713:9 0.021237
4 *713:7 0.0168937
5 *713:5 0.00329979
6 *802:Di0[3] *802:Di0[4] 0.0119358
7 *802:Di0[3] *716:13 0.000770235
8 *802:Di0[3] *717:13 0.000554408
9 *802:Di0[3] *718:13 0.000934519
10 *802:Di0[3] *719:13 0.00168768
11 io_out[1] *713:9 0
12 *802:Di0[2] *802:Di0[3] 0.00652375
13 *68:13 *713:9 0.0474578
14 *689:13 *802:Di0[3] 0.00188715
*RES
1 *803:mem_wdata[3] *713:5 59.2125 
2 *713:5 *713:7 0.5 
3 *713:7 *713:9 70.3367 
4 *713:9 *802:Di0[3] 23.2604 
*END

*D_NET *714 0.0933306
*CONN
*I *802:Di0[4] I *D DFFRAM512x32
*I *803:mem_wdata[4] O *D memory_macro
*CAP
1 *802:Di0[4] 0.0104901
2 *803:mem_wdata[4] 0.00270924
3 *714:9 0.0338752
4 *714:7 0.0260944
5 *802:Di0[4] *716:13 0.000338775
6 *802:Di0[4] *717:13 0.000338775
7 *802:Di0[4] *718:13 0.000338775
8 *802:Di0[4] *719:13 0.000318831
9 *714:9 *716:11 0
10 *802:Di0[1] *802:Di0[4] 0.000234659
11 *802:Di0[3] *802:Di0[4] 0.0119358
12 *30:17 *714:9 0
13 *690:13 *802:Di0[4] 0.00243066
14 *691:13 *802:Di0[4] 0.00216316
15 *692:21 *802:Di0[4] 0.00149593
16 *694:15 *802:Di0[4] 0.000566394
*RES
1 *803:mem_wdata[4] *714:7 49.0025 
2 *714:7 *714:9 61.3637 
3 *714:9 *802:Di0[4] 29.0313 
*END

*D_NET *715 0.073751
*CONN
*I *802:Di0[5] I *D DFFRAM512x32
*I *803:mem_wdata[5] O *D memory_macro
*CAP
1 *802:Di0[5] 0.000472453
2 *803:mem_wdata[5] 0.00186186
3 *715:13 0.00878999
4 *715:11 0.00831754
5 *715:9 0.0206326
6 *715:7 0.0224945
7 *802:Di0[5] *717:13 1.79536e-05
8 *715:13 *718:13 0
9 *715:13 *719:13 0
10 *693:13 *715:13 0.00498622
11 *699:13 *715:13 0.00617787
*RES
1 *803:mem_wdata[5] *715:7 33.7025 
2 *715:7 *715:9 54.4008 
3 *715:9 *715:11 0.5 
4 *715:11 *715:13 204.488 
5 *715:13 *802:Di0[5] 9.54543 
*END

*D_NET *716 0.0880913
*CONN
*I *802:Di0[6] I *D DFFRAM512x32
*I *803:mem_wdata[6] O *D memory_macro
*CAP
1 *802:Di0[6] 0.000399322
2 *803:mem_wdata[6] 0.00300309
3 *716:13 0.00411989
4 *716:11 0.0226826
5 *716:5 0.0219651
6 *716:13 *717:13 0.0159816
7 *716:13 *718:13 0.0173807
8 *802:Di0[2] *716:13 0.00144997
9 *802:Di0[3] *716:13 0.000770235
10 *802:Di0[4] *716:13 0.000338775
11 *68:13 *716:11 0
12 *695:5 *716:13 0
13 *714:9 *716:11 0
*RES
1 *803:mem_wdata[6] *716:5 53.6025 
2 *716:5 *716:11 49.3993 
3 *716:11 *716:13 205.635 
4 *716:13 *802:Di0[6] 0.988933 
*END

*D_NET *717 0.0771062
*CONN
*I *802:Di0[7] I *D DFFRAM512x32
*I *803:mem_wdata[7] O *D memory_macro
*CAP
1 *802:Di0[7] 7.82358e-05
2 *803:mem_wdata[7] 0.00446375
3 *717:13 0.00633747
4 *717:11 0.0222249
5 *717:5 0.0204294
6 *717:11 *719:11 0
7 *717:13 *718:13 0.00131957
8 *802:Di0[2] *717:13 0.00125033
9 *802:Di0[3] *717:13 0.000554408
10 *802:Di0[4] *717:13 0.000338775
11 *802:Di0[5] *717:13 1.79536e-05
12 *530:14 *717:11 0
13 *692:15 *717:13 0.00410977
14 *695:5 *717:13 0
15 *716:13 *717:13 0.0159816
*RES
1 *803:mem_wdata[7] *717:5 79.6125 
2 *717:5 *717:11 42.8152 
3 *717:11 *717:13 205.125 
4 *717:13 *802:Di0[7] 0.664667 
*END

*D_NET *718 0.0895308
*CONN
*I *802:Di0[8] I *D DFFRAM512x32
*I *803:mem_wdata[8] O *D memory_macro
*CAP
1 *802:Di0[8] 0.00030909
2 *803:mem_wdata[8] 0.00369936
3 *718:13 0.00461404
4 *718:11 0.0135735
5 *718:5 0.012968
6 *718:13 *719:13 0.00134577
7 io_out[1] *718:11 0.0136132
8 *802:Di0[2] *718:13 0.00120163
9 *802:Di0[3] *718:13 0.000934519
10 *802:Di0[4] *718:13 0.000338775
11 *689:13 *718:13 0.0182326
12 *695:5 *718:13 0
13 *715:13 *718:13 0
14 *716:13 *718:13 0.0173807
15 *717:13 *718:13 0.00131957
*RES
1 *803:mem_wdata[8] *718:5 63.8025 
2 *718:5 *718:11 36.0563 
3 *718:11 *718:13 242.355 
4 *718:13 *802:Di0[8] 0.930667 
*END

*D_NET *719 0.0973112
*CONN
*I *802:Di0[9] I *D DFFRAM512x32
*I *803:mem_wdata[9] O *D memory_macro
*CAP
1 *802:Di0[9] 0.000205316
2 *803:mem_wdata[9] 0.00436156
3 *719:13 0.00448276
4 *719:11 0.0117108
5 *719:5 0.0117949
6 *802:Di0[3] *719:13 0.00168768
7 *802:Di0[4] *719:13 0.000318831
8 *530:14 *719:11 0.0205478
9 *689:13 *719:13 0.0204153
10 *690:13 *719:13 0.0203717
11 *693:13 *719:13 0
12 *694:15 *719:13 6.87171e-05
13 *715:13 *719:13 0
14 *717:11 *719:11 0
15 *718:13 *719:13 0.00134577
*RES
1 *803:mem_wdata[9] *719:5 75.0225 
2 *719:5 *719:11 31.5115 
3 *719:11 *719:13 255.615 
4 *719:13 *802:Di0[9] 0.7584 
*END

*D_NET *720 0.0171748
*CONN
*I *802:WE0[0] I *D DFFRAM512x32
*I *803:mem_we[0] O *D memory_macro
*CAP
1 *802:WE0[0] 0.00416218
2 *803:mem_we[0] 0.00442521
3 *720:11 0.00858739
4 *667:14 *720:11 0
5 *699:5 *802:WE0[0] 0
*RES
1 *803:mem_we[0] *720:11 35.6808 
2 *720:11 *802:WE0[0] 74.5125 
*END

*D_NET *721 0.0309615
*CONN
*I *802:WE0[1] I *D DFFRAM512x32
*I *803:mem_we[1] O *D memory_macro
*CAP
1 *802:WE0[1] 0.00356543
2 *803:mem_we[1] 0.00217173
3 *721:11 0.0117962
4 *721:7 0.0104025
5 *30:17 *721:11 0
6 *678:14 *721:11 0.00302559
*RES
1 *803:mem_we[1] *721:7 39.3125 
2 *721:7 *721:11 23.7864 
3 *721:11 *802:WE0[1] 63.2925 
*END

*D_NET *722 0.0584166
*CONN
*I *802:WE0[2] I *D DFFRAM512x32
*I *803:mem_we[2] O *D memory_macro
*CAP
1 *802:WE0[2] 0.00518377
2 *803:mem_we[2] 0.000767634
3 *722:11 0.0155339
4 *722:7 0.0111178
5 *41:5 *722:11 0.0258135
*RES
1 *803:mem_we[2] *722:7 13.8125 
2 *722:7 *722:11 39.9263 
3 *722:11 *802:WE0[2] 88.7925 
*END

*D_NET *723 0.0568677
*CONN
*I *802:WE0[3] I *D DFFRAM512x32
*I *803:mem_we[3] O *D memory_macro
*CAP
1 *802:WE0[3] 0.00575063
2 *803:mem_we[3] 0.0001225
3 *723:11 0.00575063
4 *723:9 0.0193645
5 *723:7 0.019487
6 *803:mem_rdata[13] *723:9 1.00909e-05
7 *803:wbs_dat_i[20] *723:9 9.17476e-05
8 *650:6 *723:9 0.00629052
9 *682:14 *723:9 0
10 *685:18 *723:9 0
11 *692:5 *802:WE0[3] 0
*RES
1 *803:mem_we[3] *723:7 2.5925 
2 *723:7 *723:9 55.6244 
3 *723:9 *723:11 0.5 
4 *723:11 *802:WE0[3] 100.012 
*END

*D_NET *724 0.159408
*CONN
*I *803:cpu_mem_addr[0] I *D memory_macro
*I *804:mem_addr[0] O *D picorv32_soc
*CAP
1 *803:cpu_mem_addr[0] 0.000734001
2 *804:mem_addr[0] 8.96041e-05
3 *724:14 0.0322845
4 *724:12 0.0315505
5 *724:10 0.0322676
6 *724:8 0.0323572
7 *724:8 *804:mem_rdata[10] 0.000151765
8 *724:8 *804:mem_rdata[12] 0.000151765
9 *724:10 *734:13 0.00590524
10 *724:10 *765:13 0
11 *531:14 *724:14 0.0239155
*RES
1 *804:mem_addr[0] *724:8 1.24193 
2 *724:8 *724:10 90.7364 
3 *724:10 *724:12 0.5 
4 *724:12 *724:14 90.7883 
5 *724:14 *803:cpu_mem_addr[0] 13.3025 
*END

*D_NET *725 0.186592
*CONN
*I *803:cpu_mem_addr[1] I *D memory_macro
*I *804:mem_addr[1] O *D picorv32_soc
*CAP
1 *803:cpu_mem_addr[1] 0.00367476
2 *804:mem_addr[1] 0.000174968
3 *725:23 0.0339182
4 *725:21 0.0302434
5 *725:19 0.00706614
6 *725:17 0.00723456
7 *725:11 0.00381422
8 *725:9 0.00382076
9 *803:cpu_mem_addr[1] *803:cpu_mem_we[0] 0
10 *803:cpu_mem_addr[1] *803:cpu_mem_we[1] 0.000188291
11 *725:11 *804:mem_rdata[12] 0.00532872
12 *725:11 *786:14 0.0015737
13 *725:11 *799:11 0.00843889
14 *725:19 *726:19 0.031804
15 *725:19 *726:25 0.0016783
16 *725:19 *791:9 0.0350697
17 *725:19 *798:11 0.000346427
18 *725:23 *726:27 0
19 *725:23 *756:18 0
20 *725:23 *788:25 0.0118453
21 *725:23 *800:13 0
22 *121:12 *725:19 0.000371747
23 *126:11 *725:23 0
24 *609:17 *803:cpu_mem_addr[1] 0
*RES
1 *804:mem_addr[1] *725:9 3.665 
2 *725:9 *725:11 100.155 
3 *725:11 *725:17 4.7725 
4 *725:17 *725:19 53.8764 
5 *725:19 *725:21 0.5 
6 *725:21 *725:23 544.785 
7 *725:23 *803:cpu_mem_addr[1] 16.5626 
*END

*D_NET *726 0.196632
*CONN
*I *803:cpu_mem_addr[2] I *D memory_macro
*I *804:mem_addr[2] O *D picorv32_soc
*CAP
1 *803:cpu_mem_addr[2] 0.000297123
2 *804:mem_addr[2] 0.000269499
3 *726:27 0.0195429
4 *726:25 0.0202333
5 *726:19 0.00779739
6 *726:17 0.0068675
7 *726:11 0.00080351
8 *726:9 0.00101538
9 *803:cpu_mem_addr[2] *803:cpu_mem_wdata[2] 0.000213788
10 *803:cpu_mem_addr[2] *803:cpu_mem_wdata[3] 9.19512e-05
11 *726:11 *804:mem_rdata[10] 0.00141693
12 *726:11 *784:19 0.0059602
13 *726:11 *785:14 0.00586166
14 *726:19 *804:mem_rdata[10] 0.0010418
15 *726:19 *730:12 0.000330932
16 *726:19 *731:21 0.00167893
17 *726:19 *786:14 0.00246086
18 *726:19 *791:9 0.000903587
19 *726:19 *799:21 0.0311019
20 *726:19 *799:25 0.000595324
21 *726:25 *791:9 0.000106615
22 *726:25 *799:25 0.000630514
23 *726:27 *791:13 0.0491536
24 *804:io_in[23] *726:25 0.000564161
25 *83:8 *726:25 0.00148889
26 *121:12 *726:25 0.000371747
27 *127:9 *726:27 0.00234916
28 *545:19 *803:cpu_mem_addr[2] 0
29 *609:17 *803:cpu_mem_addr[2] 0
30 *725:19 *726:19 0.031804
31 *725:19 *726:25 0.0016783
32 *725:23 *726:27 0
*RES
1 *804:mem_addr[2] *726:9 3.665 
2 *726:9 *726:11 53.925 
3 *726:11 *726:17 3.2425 
4 *726:17 *726:19 53.6142 
5 *726:19 *726:25 6.4014 
6 *726:25 *726:27 551.415 
7 *726:27 *803:cpu_mem_addr[2] 1.97027 
*END

*D_NET *727 0.185887
*CONN
*I *803:cpu_mem_addr[3] I *D memory_macro
*I *804:mem_addr[3] O *D picorv32_soc
*CAP
1 *803:cpu_mem_addr[3] 0.00557767
2 *804:mem_addr[3] 0.0223362
3 *727:24 0.00689138
4 *727:18 0.0269408
5 *727:16 0.0479633
6 *727:16 *804:mem_rdata[10] 0.0018002
7 *727:16 *804:mem_rdata[12] 0.000503165
8 *727:16 *804:mem_rdata[16] 0.00247972
9 *727:16 *804:mem_rdata[1] 0.0126583
10 *727:16 *804:mem_rdata[3] 1.43414e-05
11 *727:16 *804:mem_rdata[5] 0.000150013
12 *727:16 *804:mem_rdata[6] 0.000533553
13 *727:16 *804:mem_rdata[9] 0.000128993
14 *727:16 *784:17 0.00304175
15 *727:16 *785:12 0.00260761
16 *727:16 *786:12 0.000519816
17 *727:16 *799:25 0.00111273
18 *727:16 *801:16 0.000149343
19 *727:18 *756:18 0.00822366
20 *727:18 *788:25 0.00157723
21 *727:18 *800:13 0.00918224
22 *727:24 *759:11 0.00601536
23 *727:24 *800:19 0.00451885
24 *804:io_in[23] *727:16 0.000401756
25 *83:8 *727:16 0.000142537
26 *97:12 *727:18 0.00443616
27 *126:11 *727:18 0.00285909
28 *129:13 *727:18 0.0106933
29 *131:9 *727:18 0.00238682
30 *529:26 *727:24 4.11135e-05
*RES
1 *804:mem_addr[3] *727:16 8.18891 
2 *727:16 *727:18 75.8353 
3 *727:18 *727:24 9.98193 
4 *727:24 *803:cpu_mem_addr[3] 100.522 
*END

*D_NET *728 0.201619
*CONN
*I *803:cpu_mem_addr[4] I *D memory_macro
*I *804:mem_addr[4] O *D picorv32_soc
*CAP
1 *803:cpu_mem_addr[4] 0.00565779
2 *804:mem_addr[4] 0.000155348
3 *728:45 0.00970262
4 *728:19 0.0130745
5 *728:17 0.00902971
6 *728:15 0.00650288
7 *728:13 0.00650288
8 *728:11 0.00190406
9 *728:9 0.00205941
10 *728:11 *729:11 0.00900225
11 *728:11 *730:12 0.00166461
12 *728:11 *792:9 0
13 *728:11 *798:11 0.00559232
14 *728:15 *729:15 0.040085
15 *728:15 *730:14 0.00620053
16 *728:15 *795:13 0.0401053
17 *728:19 *731:29 0.00582853
18 *728:19 *760:17 0.0252966
19 *728:19 *794:19 0.000589287
20 *728:45 *803:cpu_mem_addr[6] 0.000350549
21 *728:45 *760:15 0.00288522
22 *728:45 *762:11 0.000653733
23 *728:45 *792:33 0.00585781
24 *68:11 *728:15 0.000744315
25 *70:9 *728:15 0.00217385
*RES
1 *804:mem_addr[4] *728:9 3.32 
2 *728:9 *728:11 82.905 
3 *728:11 *728:13 2 
4 *728:13 *728:15 450.18 
5 *728:15 *728:17 2 
6 *728:17 *728:19 242.295 
7 *728:19 *728:45 21.7461 
8 *728:45 *803:cpu_mem_addr[4] 101.543 
*END

*D_NET *729 0.219519
*CONN
*I *803:cpu_mem_addr[5] I *D memory_macro
*I *804:mem_addr[5] O *D picorv32_soc
*CAP
1 *803:cpu_mem_addr[5] 0.0055238
2 *804:mem_addr[5] 0.000115464
3 *729:29 0.00807085
4 *729:19 0.00561047
5 *729:17 0.00306342
6 *729:15 0.00662
7 *729:13 0.00662
8 *729:11 0.00144701
9 *729:9 0.00156248
10 *729:11 *731:21 0.00197893
11 *729:11 *785:14 0.0103851
12 *729:11 *791:9 0.000146016
13 *729:11 *798:11 0.000793108
14 *729:15 *730:14 0.00577022
15 *729:15 *760:21 0.0395431
16 *729:15 *762:13 0.000122893
17 *729:15 *795:13 3.09072e-05
18 *729:15 *796:13 0
19 *729:19 *761:17 0.0188795
20 *729:19 *792:17 0.0213422
21 *729:19 *793:17 0.00032005
22 *729:19 *794:19 0.00492102
23 *729:29 *803:cpu_mem_addr[6] 0.00194373
24 *729:29 *803:cpu_mem_addr[8] 0
25 *729:29 *760:15 0.00896807
26 *729:29 *761:15 0.0115744
27 *729:29 *762:11 0.00216596
28 *729:29 *763:23 0.00030287
29 *68:11 *729:15 0.000665642
30 *70:9 *729:15 0.00194408
31 *728:11 *729:11 0.00900225
32 *728:15 *729:15 0.040085
*RES
1 *804:mem_addr[5] *729:9 3.32 
2 *729:9 *729:11 95.67 
3 *729:11 *729:13 2 
4 *729:13 *729:15 450.69 
5 *729:15 *729:17 2 
6 *729:17 *729:19 193.305 
7 *729:19 *729:29 24.145 
8 *729:29 *803:cpu_mem_addr[5] 98.9925 
*END

*D_NET *730 0.245081
*CONN
*I *803:cpu_mem_addr[6] I *D memory_macro
*I *804:mem_addr[6] O *D picorv32_soc
*CAP
1 *803:cpu_mem_addr[6] 0.0277271
2 *804:mem_addr[6] 0.00358893
3 *730:14 0.0597157
4 *730:12 0.0355775
5 *803:cpu_mem_addr[6] *731:29 0.00296422
6 *803:cpu_mem_addr[6] *732:19 0.00451785
7 *803:cpu_mem_addr[6] *760:15 0.00111559
8 *803:cpu_mem_addr[6] *761:15 0.00225339
9 *803:cpu_mem_addr[6] *762:11 0.00510804
10 *803:cpu_mem_addr[6] *763:23 0.00181295
11 *803:cpu_mem_addr[6] *764:11 0.00397631
12 *803:cpu_mem_addr[6] *765:11 0.00642534
13 *803:cpu_mem_addr[6] *792:33 0.000415434
14 *803:cpu_mem_addr[6] *793:27 0.00615972
15 *803:cpu_mem_addr[6] *794:19 0.00462995
16 *803:cpu_mem_addr[6] *795:19 0.00192283
17 *730:12 *804:mem_rdata[10] 0.00147241
18 *730:12 *731:21 0.0107509
19 *730:12 *732:11 0.00280874
20 *730:12 *770:11 0.000116403
21 *730:12 *788:23 0.000124991
22 *730:12 *791:9 0.00134442
23 *730:12 *798:11 0.00171467
24 *730:14 *735:30 0.00856875
25 *730:14 *736:26 0.00856875
26 *730:14 *760:21 0.00315184
27 *730:14 *762:13 0.0031539
28 *730:14 *769:15 0
29 *730:14 *795:13 0.00958151
30 *67:9 *730:14 0.000542367
31 *68:11 *730:14 0.00238281
32 *69:9 *730:14 0.000987095
33 *70:9 *730:14 0.00559779
34 *584:19 *803:cpu_mem_addr[6] 4.21127e-05
35 *726:19 *730:12 0.000330932
36 *728:11 *730:12 0.00166461
37 *728:15 *730:14 0.00620053
38 *728:45 *803:cpu_mem_addr[6] 0.000350549
39 *729:15 *730:14 0.00577022
40 *729:29 *803:cpu_mem_addr[6] 0.00194373
*RES
1 *804:mem_addr[6] *730:12 19.4085 
2 *730:12 *730:14 76.6105 
3 *730:14 *803:cpu_mem_addr[6] 22.4916 
*END

*D_NET *731 0.210582
*CONN
*I *803:cpu_mem_addr[7] I *D memory_macro
*I *804:mem_addr[7] O *D picorv32_soc
*CAP
1 *803:cpu_mem_addr[7] 0.00564524
2 *804:mem_addr[7] 0.0026331
3 *731:29 0.0104183
4 *731:23 0.0110889
5 *731:21 0.00894897
6 *803:cpu_mem_addr[7] *760:15 0.000137536
7 *731:21 *804:mem_rdata[10] 0.0105311
8 *731:21 *785:14 0.00210961
9 *731:21 *791:9 0.00257959
10 *731:21 *798:11 0.000445094
11 *731:23 *732:13 0.0402149
12 *731:23 *761:21 0.0399112
13 *731:29 *760:17 0.00571237
14 *731:29 *763:23 0.0148167
15 *731:29 *792:33 0.0013918
16 *731:29 *794:19 0.025423
17 *803:cpu_mem_addr[6] *731:29 0.00296422
18 *804:io_in[3] *731:23 0.000788327
19 *79:8 *731:23 0.00155633
20 *79:10 *731:29 2.7693e-05
21 *531:12 *803:cpu_mem_addr[7] 0.00300073
22 *726:19 *731:21 0.00167893
23 *728:19 *731:29 0.00582853
24 *729:11 *731:21 0.00197893
25 *730:12 *731:21 0.0107509
*RES
1 *804:mem_addr[7] *731:21 23.7328 
2 *731:21 *731:23 449.925 
3 *731:23 *731:29 38.7948 
4 *731:29 *803:cpu_mem_addr[7] 101.033 
*END

*D_NET *732 0.189064
*CONN
*I *803:cpu_mem_addr[8] I *D memory_macro
*I *804:mem_addr[8] O *D picorv32_soc
*CAP
1 *803:cpu_mem_addr[8] 0.00558137
2 *804:mem_addr[8] 0.00338211
3 *732:19 0.00902914
4 *732:13 0.0098762
5 *732:11 0.00981054
6 *732:11 *770:11 0.0141526
7 *732:11 *788:23 0.00022669
8 *732:11 *791:9 0.00644531
9 *732:13 *737:28 0.000101075
10 *732:13 *761:21 2.18287e-05
11 *732:13 *763:25 0.040303
12 *732:19 *761:15 0.000854082
13 *732:19 *762:11 0.0209293
14 *732:19 *764:11 0.0187121
15 *803:cpu_mem_addr[6] *732:19 0.00451785
16 *804:io_in[3] *732:13 0.000705002
17 *79:8 *732:13 0.00139182
18 *729:29 *803:cpu_mem_addr[8] 0
19 *730:12 *732:11 0.00280874
20 *731:23 *732:13 0.0402149
*RES
1 *804:mem_addr[8] *732:11 24.2374 
2 *732:11 *732:13 453.495 
3 *732:13 *732:19 32.0941 
4 *732:19 *803:cpu_mem_addr[8] 99.5025 
*END

*D_NET *733 0.15544
*CONN
*I *803:cpu_mem_en I *D memory_macro
*I *804:mem_en O *D picorv32_soc
*CAP
1 *803:cpu_mem_en 0.0027716
2 *804:mem_en 2.4864e-05
3 *733:14 0.0387774
4 *733:12 0.0360058
5 *733:10 0.0148121
6 *733:8 0.014837
7 *733:8 *804:mem_rdata[10] 4.21127e-05
8 *733:8 *804:mem_rdata[12] 4.21127e-05
9 *733:10 *764:13 0.0241417
10 *733:10 *765:13 0.023985
11 *733:14 *734:9 0
*RES
1 *804:mem_en *733:8 1.06713 
2 *733:8 *733:10 84.7071 
3 *733:10 *733:12 0.5 
4 *733:12 *733:14 93.993 
5 *733:14 *803:cpu_mem_en 49.0025 
*END

*D_NET *734 0.138303
*CONN
*I *804:mem_rdata[0] I *D picorv32_soc
*I *803:cpu_mem_rdata[0] O *D memory_macro
*CAP
1 *804:mem_rdata[0] 2.4864e-05
2 *803:cpu_mem_rdata[0] 0.00307903
3 *734:13 0.0282733
4 *734:11 0.0282484
5 *734:9 0.0348045
6 *734:7 0.0348045
7 *734:5 0.00307903
8 *804:mem_rdata[0] *804:mem_rdata[10] 4.21127e-05
9 *804:mem_rdata[0] *804:mem_rdata[12] 4.21127e-05
10 *724:10 *734:13 0.00590524
11 *733:14 *734:9 0
*RES
1 *803:cpu_mem_rdata[0] *734:5 53.6025 
2 *734:5 *734:7 0.5 
3 *734:7 *734:9 88.1663 
4 *734:9 *734:11 0.5 
5 *734:11 *734:13 83.8457 
6 *734:13 *804:mem_rdata[0] 1.06713 
*END

*D_NET *735 0.192771
*CONN
*I *804:mem_rdata[10] I *D picorv32_soc
*I *803:cpu_mem_rdata[10] O *D memory_macro
*CAP
1 *804:mem_rdata[10] 0.00397251
2 *803:cpu_mem_rdata[10] 0.00581541
3 *735:30 0.0121574
4 *735:28 0.0101848
5 *735:24 0.00781536
6 *804:mem_rdata[10] *804:mem_rdata[12] 0.00821229
7 *804:mem_rdata[10] *804:mem_rdata[16] 0.000140253
8 *804:mem_rdata[10] *804:mem_rdata[1] 0.000321122
9 *804:mem_rdata[10] *804:mem_rdata[2] 0.000241239
10 *804:mem_rdata[10] *804:mem_rdata[3] 0.000115214
11 *804:mem_rdata[10] *804:mem_rdata[4] 0.000414409
12 *804:mem_rdata[10] *804:mem_rdata[5] 0.000224866
13 *804:mem_rdata[10] *804:mem_rdata[6] 0.000281173
14 *804:mem_rdata[10] *804:mem_rdata[9] 0.000520823
15 *804:mem_rdata[10] *784:19 0.00354762
16 *804:mem_rdata[10] *786:14 0.00356448
17 *804:mem_rdata[10] *799:11 0.00161877
18 *804:mem_rdata[10] *799:21 0.0034406
19 *804:mem_rdata[10] *801:16 4.21127e-05
20 *735:24 *803:cpu_mem_wdata[10] 0.0110749
21 *735:24 *803:cpu_mem_wdata[12] 0.00259447
22 *735:24 *803:cpu_mem_wdata[13] 8.11917e-05
23 *735:24 *803:cpu_mem_wdata[8] 0.00150858
24 *735:24 *803:cpu_mem_wdata[9] 0.00138978
25 *735:24 *736:24 5.56205e-06
26 *735:28 *736:26 0.00175584
27 *735:30 *736:26 0.0449198
28 *735:30 *795:13 0.0409859
29 *804:mem_rdata[0] *804:mem_rdata[10] 4.21127e-05
30 *68:11 *735:30 0.000757115
31 *724:8 *804:mem_rdata[10] 0.000151765
32 *726:11 *804:mem_rdata[10] 0.00141693
33 *726:19 *804:mem_rdata[10] 0.0010418
34 *727:16 *804:mem_rdata[10] 0.0018002
35 *730:12 *804:mem_rdata[10] 0.00147241
36 *730:14 *735:30 0.00856875
37 *731:21 *804:mem_rdata[10] 0.0105311
38 *733:8 *804:mem_rdata[10] 4.21127e-05
*RES
1 *803:cpu_mem_rdata[10] *735:24 25.2553 
2 *735:24 *735:28 48.525 
3 *735:28 *735:30 504.3 
4 *735:30 *804:mem_rdata[10] 26.9667 
*END

*D_NET *736 0.194798
*CONN
*I *804:mem_rdata[11] I *D picorv32_soc
*I *803:cpu_mem_rdata[11] O *D memory_macro
*CAP
1 *804:mem_rdata[11] 0.00579992
2 *803:cpu_mem_rdata[11] 0.002593
3 *736:26 0.0150833
4 *736:24 0.0118764
5 *804:mem_rdata[11] *804:mem_rdata[14] 0.00649851
6 *804:mem_rdata[11] *804:mem_rdata[8] 0.013907
7 *804:mem_rdata[11] *742:9 0.00290679
8 *804:mem_rdata[11] *743:9 0.000102021
9 *804:mem_rdata[11] *766:9 0.00296041
10 *804:mem_rdata[11] *768:13 0
11 *804:mem_rdata[11] *770:11 0.000142358
12 *804:mem_rdata[11] *772:15 0.00151748
13 *804:mem_rdata[11] *772:17 0.00296852
14 *804:mem_rdata[11] *774:17 0.0032727
15 *804:mem_rdata[11] *794:11 0.000635434
16 *736:24 *803:cpu_mem_wdata[10] 0.00198922
17 *736:24 *803:cpu_mem_wdata[11] 0.00792028
18 *736:24 *803:cpu_mem_wdata[12] 0.0011345
19 *736:24 *803:cpu_mem_wdata[13] 9.40771e-05
20 *736:24 *803:cpu_mem_wdata[8] 0.00167401
21 *736:24 *803:cpu_mem_wdata[9] 0.00100463
22 *736:24 *737:26 0.00606315
23 *736:24 *738:21 0.000407619
24 *736:26 *738:23 0.0480522
25 *736:26 *795:13 0.000218251
26 *68:11 *736:26 0.000544964
27 *584:19 *736:24 0.000180788
28 *730:14 *736:26 0.00856875
29 *735:24 *736:24 5.56205e-06
30 *735:28 *736:26 0.00175584
31 *735:30 *736:26 0.0449198
*RES
1 *803:cpu_mem_rdata[11] *736:24 20.2216 
2 *736:24 *736:26 556.515 
3 *736:26 *804:mem_rdata[11] 32.9476 
*END

*D_NET *737 0.168006
*CONN
*I *804:mem_rdata[12] I *D picorv32_soc
*I *803:cpu_mem_rdata[12] O *D memory_macro
*CAP
1 *804:mem_rdata[12] 0.00426299
2 *803:cpu_mem_rdata[12] 0.00196014
3 *737:28 0.0140784
4 *737:26 0.0117756
5 *804:mem_rdata[12] *804:mem_rdata[16] 0.01039
6 *804:mem_rdata[12] *804:mem_rdata[1] 0.000321122
7 *804:mem_rdata[12] *804:mem_rdata[2] 0.000241239
8 *804:mem_rdata[12] *804:mem_rdata[3] 0.000115214
9 *804:mem_rdata[12] *804:mem_rdata[4] 0.000414409
10 *804:mem_rdata[12] *804:mem_rdata[5] 0.000224866
11 *804:mem_rdata[12] *804:mem_rdata[6] 0.000281173
12 *804:mem_rdata[12] *804:mem_rdata[9] 0.000520823
13 *804:mem_rdata[12] *784:17 0.000143096
14 *804:mem_rdata[12] *786:14 0.00070216
15 *804:mem_rdata[12] *799:21 0.001456
16 *804:mem_rdata[12] *801:16 4.21127e-05
17 *737:26 *803:cpu_mem_wdata[10] 0.0060618
18 *737:26 *803:cpu_mem_wdata[12] 0.0011345
19 *737:26 *803:cpu_mem_wdata[9] 0.00115708
20 *737:26 *738:21 0.000118807
21 *737:28 *739:15 0.0490991
22 *737:28 *763:25 0.0400043
23 *737:28 *797:13 0
24 *804:io_in[3] *737:28 0.000796841
25 *804:mem_rdata[0] *804:mem_rdata[12] 4.21127e-05
26 *804:mem_rdata[10] *804:mem_rdata[12] 0.00821229
27 *79:8 *737:28 0.00155633
28 *584:19 *737:26 0.000703294
29 *724:8 *804:mem_rdata[12] 0.000151765
30 *725:11 *804:mem_rdata[12] 0.00532872
31 *727:16 *804:mem_rdata[12] 0.000503165
32 *732:13 *737:28 0.000101075
33 *733:8 *804:mem_rdata[12] 4.21127e-05
34 *736:24 *737:26 0.00606315
*RES
1 *803:cpu_mem_rdata[12] *737:26 15.8562 
2 *737:26 *737:28 550.395 
3 *737:28 *804:mem_rdata[12] 29.0795 
*END

*D_NET *738 0.149878
*CONN
*I *804:mem_rdata[13] I *D picorv32_soc
*I *803:cpu_mem_rdata[13] O *D memory_macro
*CAP
1 *804:mem_rdata[13] 0.00408296
2 *803:cpu_mem_rdata[13] 0.00207921
3 *738:23 0.0226525
4 *738:21 0.0206487
5 *804:mem_rdata[13] *804:mem_rdata[15] 0.00450728
6 *804:mem_rdata[13] *804:mem_rdata[17] 0.00486021
7 *804:mem_rdata[13] *804:mem_rdata[19] 0
8 *804:mem_rdata[13] *804:mem_rdata[8] 0.000218386
9 *804:mem_rdata[13] *768:13 0.00884363
10 *804:mem_rdata[13] *772:15 0.00668746
11 *804:mem_rdata[13] *794:11 0.0131413
12 *738:21 *803:cpu_mem_wdata[13] 0.00104559
13 *738:21 *803:cpu_mem_wdata[8] 0.00272284
14 *738:21 *803:cpu_mem_wdata[9] 0.000369452
15 *738:23 *803:cpu_mem_wdata[13] 5.8023e-05
16 *738:23 *761:21 0
17 *738:23 *795:13 4.1587e-05
18 *61:17 *738:23 0.00014923
19 *137:11 *738:23 0.00909514
20 *529:28 *738:21 0
21 *584:19 *738:21 9.62527e-05
22 *736:24 *738:21 0.000407619
23 *736:26 *738:23 0.0480522
24 *737:26 *738:21 0.000118807
*RES
1 *803:cpu_mem_rdata[13] *738:21 41.0385 
2 *738:21 *738:23 558.555 
3 *738:23 *804:mem_rdata[13] 36.7078 
*END

*D_NET *739 0.148092
*CONN
*I *804:mem_rdata[14] I *D picorv32_soc
*I *803:cpu_mem_rdata[14] O *D memory_macro
*CAP
1 *804:mem_rdata[14] 0.0060372
2 *803:cpu_mem_rdata[14] 0.000338838
3 *739:15 0.0253332
4 *739:13 0.0196348
5 *804:mem_rdata[14] *743:9 0.00314328
6 *804:mem_rdata[14] *744:9 0.00340967
7 *804:mem_rdata[14] *746:9 0.00378553
8 *804:mem_rdata[14] *770:11 0.0195
9 *804:mem_rdata[14] *772:15 6.27395e-05
10 *804:mem_rdata[14] *774:15 0.00230698
11 *804:mem_rdata[14] *776:17 0.00422218
12 *804:mem_rdata[14] *798:19 0.000252768
13 *739:13 *803:cpu_mem_wdata[13] 0.000691147
14 *739:13 *803:cpu_mem_wdata[9] 0.000221243
15 *739:15 *763:25 0.000194395
16 *739:15 *797:13 0
17 *804:io_in[3] *739:15 0.000741497
18 *804:mem_rdata[11] *804:mem_rdata[14] 0.00649851
19 *79:8 *739:15 0.00144823
20 *529:28 *739:13 0.0011704
21 *737:28 *739:15 0.0490991
*RES
1 *803:cpu_mem_rdata[14] *739:13 16.465 
2 *739:13 *739:15 554.602 
3 *739:15 *804:mem_rdata[14] 34.1722 
*END

*D_NET *740 0.188207
*CONN
*I *804:mem_rdata[15] I *D picorv32_soc
*I *803:cpu_mem_rdata[15] O *D memory_macro
*CAP
1 *804:mem_rdata[15] 0.0174863
2 *803:cpu_mem_rdata[15] 2.5547e-05
3 *740:10 0.0499822
4 *740:8 0.0325215
5 *804:mem_rdata[15] *804:mem_rdata[17] 0.00172863
6 *804:mem_rdata[15] *804:mem_rdata[19] 0.000341583
7 *804:mem_rdata[15] *804:mem_rdata[7] 0.00301546
8 *804:mem_rdata[15] *804:mem_rdata[8] 0.0032004
9 *804:mem_rdata[15] *767:11 0.000723344
10 *804:mem_rdata[15] *768:13 0.00420971
11 *804:mem_rdata[15] *769:13 0.000576844
12 *804:mem_rdata[15] *771:11 0.000831219
13 *804:mem_rdata[15] *772:15 0.00224778
14 *804:mem_rdata[15] *773:11 0.00112046
15 *804:mem_rdata[15] *775:9 0.00435351
16 *804:mem_rdata[15] *776:15 0.000284109
17 *804:mem_rdata[15] *777:17 0.00153161
18 *804:mem_rdata[15] *787:16 0.00130702
19 *804:mem_rdata[15] *788:23 0.0105118
20 *804:mem_rdata[15] *794:11 0.00285621
21 *804:mem_rdata[15] *795:11 0.000576844
22 *740:8 *803:cpu_mem_wdata[13] 4.43752e-05
23 *740:10 *741:13 0.00640461
24 *740:10 *767:13 0.00798281
25 *740:10 *768:15 0.00717273
26 *740:10 *769:15 0
27 *740:10 *770:13 0.00744521
28 *740:10 *801:18 0.00595761
29 *804:mem_rdata[13] *804:mem_rdata[15] 0.00450728
30 *73:9 *740:10 0
31 *143:9 *740:10 0.00921859
32 *584:19 *740:8 4.21127e-05
*RES
1 *803:cpu_mem_rdata[15] *740:8 1.06713 
2 *740:8 *740:10 94.1817 
3 *740:10 *804:mem_rdata[15] 11.95 
*END

*D_NET *741 0.120075
*CONN
*I *804:mem_rdata[16] I *D picorv32_soc
*I *803:cpu_mem_rdata[16] O *D memory_macro
*CAP
1 *804:mem_rdata[16] 0.00631202
2 *803:cpu_mem_rdata[16] 0.00424455
3 *741:13 0.0271911
4 *741:11 0.0251236
5 *804:mem_rdata[16] *804:mem_rdata[1] 0.000243832
6 *804:mem_rdata[16] *804:mem_rdata[5] 0.00146624
7 *804:mem_rdata[16] *804:mem_rdata[6] 0.000412415
8 *804:mem_rdata[16] *804:mem_rdata[9] 0.00114773
9 *804:mem_rdata[16] *759:17 0.00140051
10 *804:mem_rdata[16] *770:11 0
11 *804:mem_rdata[16] *784:17 0.00218331
12 *804:mem_rdata[16] *799:21 0.00092024
13 *804:mem_rdata[16] *801:16 0.00962247
14 *741:13 *767:13 0
15 *741:13 *771:13 0
16 *741:13 *793:13 0
17 *741:13 *794:13 0.0171067
18 *804:mem_rdata[10] *804:mem_rdata[16] 0.000140253
19 *804:mem_rdata[12] *804:mem_rdata[16] 0.01039
20 *143:9 *741:13 0.00328594
21 *727:16 *804:mem_rdata[16] 0.00247972
22 *740:10 *741:13 0.00640461
*RES
1 *803:cpu_mem_rdata[16] *741:11 47.0036 
2 *741:11 *741:13 507.045 
3 *741:13 *804:mem_rdata[16] 37.9429 
*END

*D_NET *742 0.132638
*CONN
*I *804:mem_rdata[17] I *D picorv32_soc
*I *803:cpu_mem_rdata[17] O *D memory_macro
*CAP
1 *804:mem_rdata[17] 0.00220591
2 *803:cpu_mem_rdata[17] 0.0307755
3 *742:9 0.00542553
4 *742:7 0.00321962
5 *742:5 0.0307755
6 *804:mem_rdata[17] *804:mem_rdata[19] 0.00392734
7 *804:mem_rdata[17] *766:25 0.000420309
8 *804:mem_rdata[17] *768:13 0.00340864
9 *804:mem_rdata[17] *772:15 0.00110712
10 *804:mem_rdata[17] *776:15 0.000579395
11 *804:mem_rdata[17] *777:17 0.000741195
12 *742:9 *757:17 0.00174981
13 *742:9 *766:9 0.0120046
14 *742:9 *772:17 0.00292322
15 *742:9 *774:17 0.0212854
16 *804:mem_rdata[11] *742:9 0.00290679
17 *804:mem_rdata[13] *804:mem_rdata[17] 0.00486021
18 *804:mem_rdata[15] *804:mem_rdata[17] 0.00172863
19 *109:9 *742:5 0.00259338
*RES
1 *803:cpu_mem_rdata[17] *742:5 555.315 
2 *742:5 *742:7 2 
3 *742:7 *742:9 196.065 
4 *742:9 *804:mem_rdata[17] 24.3017 
*END

*D_NET *743 0.143665
*CONN
*I *804:mem_rdata[18] I *D picorv32_soc
*I *803:cpu_mem_rdata[18] O *D memory_macro
*CAP
1 *804:mem_rdata[18] 0.00168848
2 *803:cpu_mem_rdata[18] 0.0307256
3 *743:9 0.005621
4 *743:7 0.00393252
5 *743:5 0.0307256
6 *804:mem_rdata[18] *804:mem_rdata[20] 0.00416481
7 *804:mem_rdata[18] *804:mem_rdata[28] 0.000248664
8 *804:mem_rdata[18] *766:9 0.000185594
9 *804:mem_rdata[18] *772:15 0.000646595
10 *804:mem_rdata[18] *774:15 0.00547035
11 *743:9 *744:9 0.0274599
12 *743:9 *757:17 0.000165088
13 *743:9 *766:9 1.19928e-05
14 *743:9 *774:17 0.0259991
15 *804:mem_rdata[11] *743:9 0.000102021
16 *804:mem_rdata[14] *743:9 0.00314328
17 *108:9 *743:5 0.00337404
*RES
1 *803:cpu_mem_rdata[18] *743:5 554.805 
2 *743:5 *743:7 2 
3 *743:7 *743:9 252.99 
4 *743:9 *804:mem_rdata[18] 15.9243 
*END

*D_NET *744 0.148859
*CONN
*I *804:mem_rdata[19] I *D picorv32_soc
*I *803:cpu_mem_rdata[19] O *D memory_macro
*CAP
1 *804:mem_rdata[19] 0.00175846
2 *803:cpu_mem_rdata[19] 0.0306951
3 *744:9 0.00664992
4 *744:7 0.00489146
5 *744:5 0.0306951
6 *804:mem_rdata[19] *766:25 0.000806376
7 *804:mem_rdata[19] *769:13 0
8 *804:mem_rdata[19] *776:15 0.000582714
9 *804:mem_rdata[19] *777:17 0.00580728
10 *744:5 *784:23 0
11 *744:9 *757:17 0
12 *744:9 *766:9 0.000363483
13 *744:9 *776:17 0.0314709
14 *804:mem_rdata[13] *804:mem_rdata[19] 0
15 *804:mem_rdata[14] *744:9 0.00340967
16 *804:mem_rdata[15] *804:mem_rdata[19] 0.000341583
17 *804:mem_rdata[17] *804:mem_rdata[19] 0.00392734
18 *743:9 *744:9 0.0274599
*RES
1 *803:cpu_mem_rdata[19] *744:5 554.55 
2 *744:5 *744:7 2 
3 *744:7 *744:9 289.905 
4 *744:9 *804:mem_rdata[19] 21.8915 
*END

*D_NET *745 0.192756
*CONN
*I *804:mem_rdata[1] I *D picorv32_soc
*I *803:cpu_mem_rdata[1] O *D memory_macro
*CAP
1 *804:mem_rdata[1] 0.0241248
2 *803:cpu_mem_rdata[1] 0.00206653
3 *745:10 0.059634
4 *745:8 0.0375758
5 *804:mem_rdata[1] *804:mem_rdata[4] 0.00199275
6 *804:mem_rdata[1] *804:mem_rdata[5] 0.000351356
7 *804:mem_rdata[1] *804:mem_rdata[6] 0.00047362
8 *804:mem_rdata[1] *804:mem_rdata[9] 0.00142256
9 *804:mem_rdata[1] *756:22 0.0203435
10 *804:mem_rdata[1] *759:17 0.00954002
11 *804:mem_rdata[1] *801:16 0.000243832
12 *745:8 *803:cpu_mem_we[0] 0
13 *745:10 *788:25 0
14 *745:10 *798:23 0.00984276
15 *745:10 *799:27 0.00491931
16 wbs_dat_o[10] *745:10 0.000238578
17 *804:mem_rdata[10] *804:mem_rdata[1] 0.000321122
18 *804:mem_rdata[12] *804:mem_rdata[1] 0.000321122
19 *804:mem_rdata[16] *804:mem_rdata[1] 0.000243832
20 *46:15 *745:10 0.000426039
21 *127:9 *745:10 0.00601664
22 *727:16 *804:mem_rdata[1] 0.0126583
*RES
1 *803:cpu_mem_rdata[1] *745:8 6.0198 
2 *745:8 *745:10 92.2868 
3 *745:10 *804:mem_rdata[1] 9.92938 
*END

*D_NET *746 0.157684
*CONN
*I *804:mem_rdata[20] I *D picorv32_soc
*I *803:cpu_mem_rdata[20] O *D memory_macro
*CAP
1 *804:mem_rdata[20] 0.00186683
2 *803:cpu_mem_rdata[20] 0.03065
3 *746:9 0.00686379
4 *746:7 0.00499696
5 *746:5 0.03065
6 *804:mem_rdata[20] *804:mem_rdata[28] 0.000658372
7 *804:mem_rdata[20] *772:15 1.79809e-05
8 *804:mem_rdata[20] *776:15 0.00559575
9 *804:mem_rdata[20] *777:17 0
10 *746:5 *785:18 0
11 *746:9 *754:35 0.0348779
12 *746:9 *757:17 0
13 *746:9 *770:11 0.000102021
14 *746:9 *776:17 0.0334546
15 *804:mem_rdata[14] *746:9 0.00378553
16 *804:mem_rdata[18] *804:mem_rdata[20] 0.00416481
*RES
1 *803:cpu_mem_rdata[20] *746:5 554.04 
2 *746:5 *746:7 2 
3 *746:7 *746:9 321.3 
4 *746:9 *804:mem_rdata[20] 17.8259 
*END

*D_NET *747 0.173867
*CONN
*I *804:mem_rdata[21] I *D picorv32_soc
*I *803:cpu_mem_rdata[21] O *D memory_macro
*CAP
1 *804:mem_rdata[21] 0.00356596
2 *803:cpu_mem_rdata[21] 0.0209795
3 *747:9 0.0111844
4 *747:7 0.00761845
5 *747:5 0.0209795
6 *804:mem_rdata[21] *804:mem_rdata[23] 0.00117806
7 *804:mem_rdata[21] *804:mem_rdata[24] 0.00597087
8 *804:mem_rdata[21] *804:mem_rdata[27] 0
9 *804:mem_rdata[21] *769:13 0.00175638
10 *804:mem_rdata[21] *782:9 0.0136329
11 *804:mem_rdata[21] *787:16 0.00308538
12 *747:5 *754:31 0.000231373
13 *747:5 *758:13 0.0285723
14 *747:5 *781:13 0
15 *747:9 *748:19 0.0320373
16 *747:9 *767:11 0.00313351
17 *747:9 *777:9 0.00140092
18 *747:9 *793:9 0.0120387
19 *43:9 *804:mem_rdata[21] 0.00312396
20 *141:9 *747:5 0.00337723
*RES
1 *803:cpu_mem_rdata[21] *747:5 560.67 
2 *747:5 *747:7 2 
3 *747:7 *747:9 290.25 
4 *747:9 *804:mem_rdata[21] 38.5865 
*END

*D_NET *748 0.210542
*CONN
*I *804:mem_rdata[22] I *D picorv32_soc
*I *803:cpu_mem_rdata[22] O *D memory_macro
*CAP
1 *804:mem_rdata[22] 0.00314686
2 *803:cpu_mem_rdata[22] 0.000492535
3 *748:19 0.00870227
4 *748:17 0.00555542
5 *748:15 0.0169145
6 *748:13 0.017407
7 *804:mem_rdata[22] *804:mem_rdata[23] 0.00115949
8 *804:mem_rdata[22] *804:mem_rdata[25] 0.00101213
9 *804:mem_rdata[22] *804:mem_rdata[26] 0.00123708
10 *804:mem_rdata[22] *804:mem_rdata[27] 0.000652856
11 *804:mem_rdata[22] *804:mem_rdata[29] 0.000416561
12 *804:mem_rdata[22] *752:31 0.000434256
13 *804:mem_rdata[22] *753:31 0.000183751
14 *804:mem_rdata[22] *769:13 0.000834537
15 *804:mem_rdata[22] *771:11 0.00339388
16 *804:mem_rdata[22] *773:11 0.00106386
17 *804:mem_rdata[22] *775:9 0.00077528
18 *804:mem_rdata[22] *777:17 0.000913545
19 *804:mem_rdata[22] *788:23 0.00228335
20 *748:13 *803:cpu_mem_wdata[22] 0.00040558
21 *748:13 *750:11 0.00188558
22 *748:15 *749:15 0.0500587
23 *748:19 *749:19 0.036901
24 *748:19 *767:11 0.000101386
25 *748:19 *771:11 0.00340782
26 *748:19 *773:11 0.000853085
27 *748:19 *775:9 0.000813158
28 *748:19 *777:9 0.000235842
29 *44:5 *804:mem_rdata[22] 0.00024923
30 *63:17 *748:15 0.00721902
31 *101:9 *748:15 0.00558721
32 *138:25 *748:15 0.00293537
33 *139:15 *748:15 0.000422051
34 *139:17 *748:15 0.000261539
35 *529:28 *748:13 0.000589318
36 *682:10 *748:15 0
37 *747:9 *748:19 0.0320373
*RES
1 *803:cpu_mem_rdata[22] *748:13 22.33 
2 *748:13 *748:15 561.87 
3 *748:15 *748:17 2 
4 *748:17 *748:19 334.755 
5 *748:19 *804:mem_rdata[22] 28.0019 
*END

*D_NET *749 0.250354
*CONN
*I *804:mem_rdata[23] I *D picorv32_soc
*I *803:cpu_mem_rdata[23] O *D memory_macro
*CAP
1 *804:mem_rdata[23] 0.00268315
2 *803:cpu_mem_rdata[23] 0.00167746
3 *749:19 0.00780938
4 *749:17 0.00512624
5 *749:15 0.00802182
6 *749:13 0.00969928
7 *804:mem_rdata[23] *804:mem_rdata[24] 0.00787465
8 *804:mem_rdata[23] *804:mem_rdata[25] 0.00619445
9 *804:mem_rdata[23] *804:mem_rdata[31] 0
10 *804:mem_rdata[23] *769:13 0.000129924
11 *804:mem_rdata[23] *787:16 0.00204249
12 *749:13 *751:11 0.00473646
13 *749:13 *754:29 0.000300608
14 *749:15 *750:15 0.0500685
15 *749:15 *751:15 1.06042e-05
16 *749:19 *750:19 0.0383077
17 *749:19 *771:11 0.0037687
18 *749:19 *773:11 0.000925384
19 *749:19 *775:9 0.00110016
20 *804:mem_rdata[21] *804:mem_rdata[23] 0.00117806
21 *804:mem_rdata[22] *804:mem_rdata[23] 0.00115949
22 *101:9 *749:15 0.00580356
23 *138:25 *749:15 0.00261747
24 *139:15 *749:15 0.000369811
25 *683:25 *749:13 0.0017885
26 *748:15 *749:15 0.0500587
27 *748:19 *749:19 0.036901
*RES
1 *803:cpu_mem_rdata[23] *749:13 48.895 
2 *749:13 *749:15 562.38 
3 *749:15 *749:17 2 
4 *749:17 *749:19 347.52 
5 *749:19 *804:mem_rdata[23] 31.5212 
*END

*D_NET *750 0.263867
*CONN
*I *804:mem_rdata[24] I *D picorv32_soc
*I *803:cpu_mem_rdata[24] O *D memory_macro
*CAP
1 *804:mem_rdata[24] 0.00235608
2 *803:cpu_mem_rdata[24] 0.000174249
3 *750:19 0.00783577
4 *750:17 0.00547969
5 *750:15 0.00797924
6 *750:13 0.00797924
7 *750:11 0.00182307
8 *750:9 0.00199731
9 *804:mem_rdata[24] *804:mem_rdata[25] 0.000556362
10 *804:mem_rdata[24] *782:9 0.00167299
11 *804:mem_rdata[24] *787:16 0.00202517
12 *750:11 *803:cpu_mem_wdata[22] 0.000149148
13 *750:11 *751:11 0.00758308
14 *750:15 *751:15 0.050041
15 *750:19 *751:19 0.0402477
16 *750:19 *773:11 0.00575103
17 *804:io_in[21] *804:mem_rdata[24] 0.000355504
18 *804:io_in[5] *750:15 0.000327511
19 *804:mem_rdata[21] *804:mem_rdata[24] 0.00597087
20 *804:mem_rdata[23] *804:mem_rdata[24] 0.00787465
21 *43:9 *804:mem_rdata[24] 0.0038655
22 *101:9 *750:15 0.00644018
23 *138:25 *750:15 0.00261747
24 *139:15 *750:15 0.000182567
25 *529:28 *750:11 0.000661965
26 *683:25 *750:11 0.00165783
27 *748:13 *750:11 0.00188558
28 *749:15 *750:15 0.0500685
29 *749:19 *750:19 0.0383077
*RES
1 *803:cpu_mem_rdata[24] *750:9 3.665 
2 *750:9 *750:11 69.795 
3 *750:11 *750:13 2 
4 *750:13 *750:15 561.615 
5 *750:15 *750:17 2 
6 *750:17 *750:19 365.115 
7 *750:19 *804:mem_rdata[24] 31.1647 
*END

*D_NET *751 0.249598
*CONN
*I *804:mem_rdata[25] I *D picorv32_soc
*I *803:cpu_mem_rdata[25] O *D memory_macro
*CAP
1 *804:mem_rdata[25] 0.00233852
2 *803:cpu_mem_rdata[25] 0.000158031
3 *751:19 0.00813556
4 *751:17 0.00579704
5 *751:15 0.0195416
6 *751:13 0.0195416
7 *751:11 0.0022313
8 *751:9 0.00238933
9 *804:mem_rdata[25] *804:mem_rdata[26] 0.00563839
10 *804:mem_rdata[25] *782:9 0.00011743
11 *804:mem_rdata[25] *783:9 0.000112575
12 *804:mem_rdata[25] *787:16 0.00150867
13 *751:11 *803:cpu_mem_wdata[22] 0.000165928
14 *751:19 *752:31 0.0408307
15 *751:19 *753:31 3.83194e-05
16 *751:19 *758:17 3.0807e-05
17 *751:19 *773:11 0.005577
18 *804:io_in[5] *751:15 0.000570528
19 *804:mem_rdata[22] *804:mem_rdata[25] 0.00101213
20 *804:mem_rdata[23] *804:mem_rdata[25] 0.00619445
21 *804:mem_rdata[24] *804:mem_rdata[25] 0.000556362
22 *101:9 *751:15 0.0114931
23 *138:25 *751:15 0.00585367
24 *139:15 *751:15 0.000401687
25 *529:28 *751:11 0
26 *683:25 *751:11 0.0024575
27 *687:30 *751:11 0.00428736
28 *749:13 *751:11 0.00473646
29 *749:15 *751:15 1.06042e-05
30 *750:11 *751:11 0.00758308
31 *750:15 *751:15 0.050041
32 *750:19 *751:19 0.0402477
*RES
1 *803:cpu_mem_rdata[25] *751:9 3.665 
2 *751:9 *751:11 96.36 
3 *751:11 *751:13 2 
4 *751:13 *751:15 561.615 
5 *751:15 *751:17 2 
6 *751:17 *751:19 379.605 
7 *751:19 *804:mem_rdata[25] 28.2727 
*END

*D_NET *752 0.273783
*CONN
*I *804:mem_rdata[26] I *D picorv32_soc
*I *803:cpu_mem_rdata[26] O *D memory_macro
*CAP
1 *804:mem_rdata[26] 0.00207258
2 *803:cpu_mem_rdata[26] 0.00643415
3 *752:31 0.00796407
4 *752:29 0.00589148
5 *752:27 0.00807734
6 *752:25 0.0145115
7 *804:mem_rdata[26] *804:mem_rdata[27] 0.0044218
8 *804:mem_rdata[26] *783:9 0
9 *804:mem_rdata[26] *788:23 0.0013475
10 *752:25 *803:cpu_mem_wdata[22] 5.25725e-05
11 *752:25 *753:25 0.0152578
12 *752:27 *753:27 0.000536424
13 *752:27 *755:13 0.0491879
14 *752:27 *780:13 0.000453263
15 *752:27 *782:13 0.0490728
16 *752:31 *753:31 0.0431889
17 *752:31 *775:9 0.00801571
18 *803:mem_rdata[8] *752:25 0.00418898
19 *803:wbs_adr_i[12] *752:25 7.80759e-05
20 *804:mem_rdata[22] *804:mem_rdata[26] 0.00123708
21 *804:mem_rdata[22] *752:31 0.000434256
22 *804:mem_rdata[25] *804:mem_rdata[26] 0.00563839
23 *141:9 *752:27 0.00481146
24 *614:17 *752:25 7.80759e-05
25 *751:19 *752:31 0.0408307
*RES
1 *803:cpu_mem_rdata[26] *752:25 28.7181 
2 *752:25 *752:27 561.487 
3 *752:27 *752:29 2 
4 *752:29 *752:31 391.335 
5 *752:31 *804:mem_rdata[26] 25.2935 
*END

*D_NET *753 0.28732
*CONN
*I *804:mem_rdata[27] I *D picorv32_soc
*I *803:cpu_mem_rdata[27] O *D memory_macro
*CAP
1 *804:mem_rdata[27] 0.00190077
2 *803:cpu_mem_rdata[27] 0.00426533
3 *753:31 0.00804508
4 *753:29 0.00614431
5 *753:27 0.00805226
6 *753:25 0.0123176
7 *804:mem_rdata[27] *804:mem_rdata[29] 0.00271221
8 *804:mem_rdata[27] *779:7 0
9 *804:mem_rdata[27] *788:23 0.00128719
10 *753:25 *803:cpu_mem_wdata[22] 5.55785e-05
11 *753:25 *754:29 0.0180059
12 *753:27 *754:31 0.00039881
13 *753:27 *781:13 0.0493082
14 *753:27 *782:13 0.0490518
15 *753:31 *755:17 0.0452451
16 *753:31 *758:17 5.74791e-05
17 *753:31 *775:9 0.00764728
18 *753:31 *777:17 0.000107567
19 *803:mem_rdata[8] *753:25 0.00327263
20 *803:wbs_adr_i[12] *753:25 7.80759e-05
21 *804:mem_rdata[21] *804:mem_rdata[27] 0
22 *804:mem_rdata[22] *804:mem_rdata[27] 0.000652856
23 *804:mem_rdata[22] *753:31 0.000183751
24 *804:mem_rdata[26] *804:mem_rdata[27] 0.0044218
25 *141:9 *753:27 0.00500889
26 *614:17 *753:25 7.80759e-05
27 *751:19 *753:31 3.83194e-05
28 *752:25 *753:25 0.0152578
29 *752:27 *753:27 0.000536424
30 *752:31 *753:31 0.0431889
*RES
1 *803:cpu_mem_rdata[27] *753:25 32.8576 
2 *753:25 *753:27 561.232 
3 *753:27 *753:29 2 
4 *753:29 *753:31 411 
5 *753:31 *804:mem_rdata[27] 22.7223 
*END

*D_NET *754 0.260772
*CONN
*I *804:mem_rdata[28] I *D picorv32_soc
*I *803:cpu_mem_rdata[28] O *D memory_macro
*CAP
1 *804:mem_rdata[28] 0.00343392
2 *803:cpu_mem_rdata[28] 0.00542362
3 *754:35 0.0156372
4 *754:33 0.0122033
5 *754:31 0.00801732
6 *754:29 0.0134409
7 *804:mem_rdata[28] *804:mem_rdata[30] 0.0104299
8 *804:mem_rdata[28] *774:15 0.00146037
9 *804:mem_rdata[28] *777:17 0
10 *804:mem_rdata[28] *798:19 0.000322014
11 *754:29 *803:cpu_mem_wdata[22] 0.000796369
12 *754:31 *758:13 0.0487772
13 *754:31 *781:13 0.0488326
14 *754:35 *757:17 0
15 *754:35 *766:9 0
16 *754:35 *770:11 0.00508706
17 *754:35 *776:17 2.21074e-05
18 *754:35 *792:9 0.0105304
19 *754:35 *798:11 0
20 *754:35 *798:19 0.000109729
21 *803:mem_rdata[8] *754:29 0.00273363
22 *804:io_in[22] *804:mem_rdata[28] 0.00208307
23 *804:mem_rdata[18] *804:mem_rdata[28] 0.000248664
24 *804:mem_rdata[20] *804:mem_rdata[28] 0.000658372
25 *141:9 *754:31 0.00327781
26 *614:17 *754:29 0.00105982
27 *683:25 *754:29 0.0113275
28 *685:18 *754:29 0
29 *687:30 *754:29 0.00104459
30 *746:9 *754:35 0.0348779
31 *747:5 *754:31 0.000231373
32 *749:13 *754:29 0.000300608
33 *753:25 *754:29 0.0180059
34 *753:27 *754:31 0.00039881
*RES
1 *803:cpu_mem_rdata[28] *754:29 37.073 
2 *754:29 *754:31 555.878 
3 *754:31 *754:33 2 
4 *754:33 *754:35 366.84 
5 *754:35 *804:mem_rdata[28] 22.7703 
*END

*D_NET *755 0.290075
*CONN
*I *804:mem_rdata[29] I *D picorv32_soc
*I *803:cpu_mem_rdata[29] O *D memory_macro
*CAP
1 *804:mem_rdata[29] 0.00239353
2 *803:cpu_mem_rdata[29] 0.000492012
3 *755:17 0.00816029
4 *755:15 0.00576676
5 *755:13 0.00774182
6 *755:11 0.00774182
7 *755:9 0.0076972
8 *755:7 0.00818921
9 *804:mem_rdata[29] *804:mem_rdata[31] 0.00526603
10 *804:mem_rdata[29] *777:17 0.000751998
11 *804:mem_rdata[29] *779:7 5.9359e-05
12 *804:mem_rdata[29] *788:23 0.00168711
13 *755:9 *757:9 0.0234683
14 *755:9 *790:19 0.00490955
15 *755:13 *780:13 0.0491854
16 *755:17 *804:mem_rdata[7] 0.00308679
17 *755:17 *758:17 0.0454672
18 *755:17 *775:9 0.00241819
19 *755:17 *777:17 0.00297766
20 *804:mem_rdata[22] *804:mem_rdata[29] 0.000416561
21 *804:mem_rdata[27] *804:mem_rdata[29] 0.00271221
22 *33:9 *755:13 0.00238755
23 *44:5 *804:mem_rdata[29] 0
24 *141:9 *755:13 0.00266571
25 *752:27 *755:13 0.0491879
26 *753:31 *755:17 0.0452451
*RES
1 *803:cpu_mem_rdata[29] *755:7 9.83 
2 *755:7 *755:9 212.625 
3 *755:9 *755:11 2 
4 *755:11 *755:13 551.16 
5 *755:13 *755:15 2 
6 *755:15 *755:17 412.035 
7 *755:17 *804:mem_rdata[29] 23.3845 
*END

*D_NET *756 0.202537
*CONN
*I *804:mem_rdata[2] I *D picorv32_soc
*I *803:cpu_mem_rdata[2] O *D memory_macro
*CAP
1 *804:mem_rdata[2] 0.000527276
2 *803:cpu_mem_rdata[2] 0.00858634
3 *756:22 0.0158415
4 *756:20 0.0153142
5 *756:18 0.0122507
6 *756:16 0.020837
7 *756:16 *803:cpu_mem_wdata[2] 2.46013e-05
8 *756:18 *800:13 0.0390967
9 *756:22 *804:mem_rdata[4] 0.00315587
10 *756:22 *804:mem_rdata[9] 0.000899136
11 *756:22 *759:17 0.0435803
12 *804:mem_rdata[10] *804:mem_rdata[2] 0.000241239
13 *804:mem_rdata[12] *804:mem_rdata[2] 0.000241239
14 *804:mem_rdata[1] *756:22 0.0203435
15 *97:12 *756:18 0.000918296
16 *126:11 *756:18 0.0124485
17 *546:19 *756:16 6.83077e-06
18 *725:23 *756:18 0
19 *727:18 *756:18 0.00822366
*RES
1 *803:cpu_mem_rdata[2] *756:16 22.8493 
2 *756:16 *756:18 437.175 
3 *756:18 *756:20 0.5 
4 *756:20 *756:22 66.8407 
5 *756:22 *804:mem_rdata[2] 2.67167 
*END

*D_NET *757 0.249936
*CONN
*I *804:mem_rdata[30] I *D picorv32_soc
*I *803:cpu_mem_rdata[30] O *D memory_macro
*CAP
1 *804:mem_rdata[30] 0.00291076
2 *803:cpu_mem_rdata[30] 0.000470407
3 *757:17 0.0190363
4 *757:15 0.0161255
5 *757:13 0.0190043
6 *757:11 0.0190043
7 *757:9 0.00399931
8 *757:7 0.00446971
9 *804:mem_rdata[30] *773:7 0.00011912
10 *804:mem_rdata[30] *798:19 0.0122514
11 *757:9 *758:9 0.0261478
12 *757:9 *790:19 0.000411293
13 *757:13 *780:13 0.0489537
14 *757:17 *804:mem_rdata[8] 0.00281663
15 *757:17 *758:17 0
16 *757:17 *766:9 0.00492123
17 *757:17 *772:15 0.00104166
18 *757:17 *772:17 0.0155301
19 *757:17 *774:17 0.000446989
20 *757:17 *776:15 0.000501472
21 *757:17 *776:17 0
22 *757:17 *794:11 0.000212004
23 *804:io_in[22] *804:mem_rdata[30] 0.000479
24 *804:mem_rdata[28] *804:mem_rdata[30] 0.0104299
25 *33:9 *757:13 0.00413892
26 *141:9 *757:13 0.00554131
27 *685:18 *757:9 0.00558979
28 *742:9 *757:17 0.00174981
29 *743:9 *757:17 0.000165088
30 *744:9 *757:17 0
31 *746:9 *757:17 0
32 *754:35 *757:17 0
33 *755:9 *757:9 0.0234683
*RES
1 *803:cpu_mem_rdata[30] *757:7 9.575 
2 *757:7 *757:9 239.535 
3 *757:9 *757:11 2 
4 *757:11 *757:13 548.61 
5 *757:13 *757:15 2 
6 *757:15 *757:17 369.945 
7 *757:17 *804:mem_rdata[30] 26.6749 
*END

*D_NET *758 0.263333
*CONN
*I *804:mem_rdata[31] I *D picorv32_soc
*I *803:cpu_mem_rdata[31] O *D memory_macro
*CAP
1 *804:mem_rdata[31] 0.00216689
2 *803:cpu_mem_rdata[31] 0.000436442
3 *758:17 0.0181532
4 *758:15 0.0159863
5 *758:13 0.00915005
6 *758:11 0.00915005
7 *758:9 0.0100699
8 *758:7 0.0105063
9 *804:mem_rdata[31] *777:17 0.000344802
10 *804:mem_rdata[31] *781:7 4.69728e-05
11 *804:mem_rdata[31] *788:23 0.00153436
12 *758:9 *790:19 0.00089744
13 *758:13 *781:13 0.000248732
14 *758:17 *804:mem_rdata[7] 0.00282234
15 *758:17 *775:9 0.00270116
16 *758:17 *777:17 0.00341671
17 *804:io_in[21] *804:mem_rdata[31] 0.00653726
18 *804:mem_rdata[23] *804:mem_rdata[31] 0
19 *804:mem_rdata[29] *804:mem_rdata[31] 0.00526603
20 *141:9 *758:13 0.00334777
21 *685:18 *758:9 0.0114977
22 *747:5 *758:13 0.0285723
23 *751:19 *758:17 3.0807e-05
24 *753:31 *758:17 5.74791e-05
25 *754:31 *758:13 0.0487772
26 *755:17 *758:17 0.0454672
27 *757:9 *758:9 0.0261478
28 *757:17 *758:17 0
*RES
1 *803:cpu_mem_rdata[31] *758:7 9.32 
2 *758:7 *758:9 262.995 
3 *758:9 *758:11 2 
4 *758:11 *758:13 551.415 
5 *758:13 *758:15 2 
6 *758:15 *758:17 429.285 
7 *758:17 *804:mem_rdata[31] 22.8525 
*END

*D_NET *759 0.196161
*CONN
*I *804:mem_rdata[3] I *D picorv32_soc
*I *803:cpu_mem_rdata[3] O *D memory_macro
*CAP
1 *804:mem_rdata[3] 0.000469312
2 *803:cpu_mem_rdata[3] 0.00555679
3 *759:17 0.0138064
4 *759:15 0.0133371
5 *759:13 0.00749651
6 *759:11 0.0109599
7 *759:5 0.00902021
8 *759:13 *791:13 0.0397489
9 *759:13 *799:27 0.0230447
10 *759:17 *804:mem_rdata[9] 0.00812749
11 *759:17 *784:17 0
12 *759:17 *786:12 0
13 *759:17 *787:16 0
14 *759:17 *799:21 0
15 *759:17 *799:25 0
16 *804:io_in[15] *759:17 0
17 *804:mem_rdata[10] *804:mem_rdata[3] 0.000115214
18 *804:mem_rdata[12] *804:mem_rdata[3] 0.000115214
19 *804:mem_rdata[16] *759:17 0.00140051
20 *804:mem_rdata[1] *759:17 0.00954002
21 *112:8 *759:17 0
22 *126:17 *759:17 1.91955e-05
23 *127:9 *759:13 0.00330459
24 *129:25 *759:17 0.000489198
25 *727:16 *804:mem_rdata[3] 1.43414e-05
26 *727:24 *759:11 0.00601536
27 *756:22 *759:17 0.0435803
*RES
1 *803:cpu_mem_rdata[3] *759:5 100.012 
2 *759:5 *759:11 13.1575 
3 *759:11 *759:13 445.845 
4 *759:13 *759:15 0.5 
5 *759:15 *759:17 65.4423 
6 *759:17 *804:mem_rdata[3] 2.41073 
*END

*D_NET *760 0.212858
*CONN
*I *804:mem_rdata[4] I *D picorv32_soc
*I *803:cpu_mem_rdata[4] O *D memory_macro
*CAP
1 *804:mem_rdata[4] 0.00494955
2 *803:cpu_mem_rdata[4] 0.00554543
3 *760:21 0.0113171
4 *760:19 0.00636756
5 *760:17 0.00353414
6 *760:15 0.00675208
7 *760:5 0.00876336
8 *804:mem_rdata[4] *804:mem_rdata[6] 0.00046153
9 *804:mem_rdata[4] *804:mem_rdata[9] 0.00196881
10 *804:mem_rdata[4] *786:14 0.000102815
11 *804:mem_rdata[4] *801:16 0
12 *760:15 *762:11 0.00298165
13 *760:17 *792:17 0.0237012
14 *760:21 *762:13 0.0395431
15 *803:cpu_mem_addr[6] *760:15 0.00111559
16 *803:cpu_mem_addr[7] *760:15 0.000137536
17 *804:mem_rdata[10] *804:mem_rdata[4] 0.000414409
18 *804:mem_rdata[12] *804:mem_rdata[4] 0.000414409
19 *804:mem_rdata[1] *804:mem_rdata[4] 0.00199275
20 *67:9 *760:21 0.000869618
21 *68:11 *760:21 0.000665642
22 *69:9 *760:21 0.000602531
23 *70:9 *760:21 0.00194408
24 *728:19 *760:17 0.0252966
25 *728:45 *760:15 0.00288522
26 *729:15 *760:21 0.0395431
27 *729:29 *760:15 0.00896807
28 *730:14 *760:21 0.00315184
29 *731:29 *760:17 0.00571237
30 *756:22 *804:mem_rdata[4] 0.00315587
*RES
1 *803:cpu_mem_rdata[4] *760:5 99.5025 
2 *760:5 *760:15 22.4553 
3 *760:15 *760:17 229.875 
4 *760:17 *760:19 2 
5 *760:19 *760:21 443.677 
6 *760:21 *804:mem_rdata[4] 17.9499 
*END

*D_NET *761 0.186356
*CONN
*I *804:mem_rdata[5] I *D picorv32_soc
*I *803:cpu_mem_rdata[5] O *D memory_macro
*CAP
1 *804:mem_rdata[5] 0.00243411
2 *803:cpu_mem_rdata[5] 0.00549571
3 *761:21 0.0178282
4 *761:19 0.0153941
5 *761:17 0.00296914
6 *761:15 0.00554583
7 *761:5 0.00807241
8 *804:mem_rdata[5] *804:mem_rdata[6] 0.011029
9 *804:mem_rdata[5] *801:16 0.00845386
10 *761:15 *762:11 0.000156797
11 *761:15 *764:5 2.67006e-05
12 *761:15 *764:11 0.000103162
13 *761:15 *793:27 0.0120363
14 *761:17 *762:11 0.00522132
15 *761:17 *793:17 0.0156778
16 *803:cpu_mem_addr[6] *761:15 0.00225339
17 *804:mem_rdata[10] *804:mem_rdata[5] 0.000224866
18 *804:mem_rdata[12] *804:mem_rdata[5] 0.000224866
19 *804:mem_rdata[16] *804:mem_rdata[5] 0.00146624
20 *804:mem_rdata[1] *804:mem_rdata[5] 0.000351356
21 *61:17 *761:21 0
22 *137:11 *761:21 0
23 *727:16 *804:mem_rdata[5] 0.000150013
24 *729:19 *761:17 0.0188795
25 *729:29 *761:15 0.0115744
26 *731:23 *761:21 0.0399112
27 *732:13 *761:21 2.18287e-05
28 *732:19 *761:15 0.000854082
29 *738:23 *761:21 0
*RES
1 *803:cpu_mem_rdata[5] *761:5 98.4825 
2 *761:5 *761:15 25.0992 
3 *761:15 *761:17 170.88 
4 *761:17 *761:19 2 
5 *761:19 *761:21 446.992 
6 *761:21 *804:mem_rdata[5] 19.3255 
*END

*D_NET *762 0.202644
*CONN
*I *804:mem_rdata[6] I *D picorv32_soc
*I *803:cpu_mem_rdata[6] O *D memory_macro
*CAP
1 *804:mem_rdata[6] 0.00293648
2 *803:cpu_mem_rdata[6] 0.00560516
3 *762:13 0.0185971
4 *762:11 0.0208993
5 *762:5 0.0108438
6 *804:mem_rdata[6] *804:mem_rdata[9] 0.0108813
7 *804:mem_rdata[6] *801:16 0.000309384
8 *762:11 *763:23 0.00030287
9 *762:11 *792:33 2.84433e-06
10 *762:11 *793:17 0.00674333
11 *762:11 *794:19 0.0275542
12 *762:13 *796:13 0
13 *803:cpu_mem_addr[6] *762:11 0.00510804
14 *804:mem_rdata[10] *804:mem_rdata[6] 0.000281173
15 *804:mem_rdata[12] *804:mem_rdata[6] 0.000281173
16 *804:mem_rdata[16] *804:mem_rdata[6] 0.000412415
17 *804:mem_rdata[1] *804:mem_rdata[6] 0.00047362
18 *804:mem_rdata[4] *804:mem_rdata[6] 0.00046153
19 *804:mem_rdata[5] *804:mem_rdata[6] 0.011029
20 *67:9 *762:13 0.00093447
21 *68:11 *762:13 0.000752846
22 *69:9 *762:13 0.000541812
23 *70:9 *762:13 0.00222963
24 *727:16 *804:mem_rdata[6] 0.000533553
25 *728:45 *762:11 0.000653733
26 *729:15 *762:13 0.000122893
27 *729:29 *762:11 0.00216596
28 *730:14 *762:13 0.0031539
29 *732:19 *762:11 0.0209293
30 *760:15 *762:11 0.00298165
31 *760:21 *762:13 0.0395431
32 *761:15 *762:11 0.000156797
33 *761:17 *762:11 0.00522132
*RES
1 *803:cpu_mem_rdata[6] *762:5 100.012 
2 *762:5 *762:11 44.2719 
3 *762:11 *762:13 446.865 
4 *762:13 *804:mem_rdata[6] 21.8588 
*END

*D_NET *763 0.188167
*CONN
*I *804:mem_rdata[7] I *D picorv32_soc
*I *803:cpu_mem_rdata[7] O *D memory_macro
*CAP
1 *804:mem_rdata[7] 0.00262758
2 *803:cpu_mem_rdata[7] 0.00557955
3 *763:25 0.00928846
4 *763:23 0.0134618
5 *763:5 0.0123804
6 *804:mem_rdata[7] *768:13 0.0136167
7 *804:mem_rdata[7] *775:9 0.0136167
8 *763:23 *792:33 2.588e-05
9 *763:25 *797:13 0
10 *803:cpu_mem_addr[6] *763:23 0.00181295
11 *804:io_in[3] *763:25 0.000712616
12 *804:mem_rdata[15] *804:mem_rdata[7] 0.00301546
13 *79:8 *763:25 0.00139182
14 *79:10 *763:23 6.07809e-06
15 *540:37 *763:23 9.2273e-05
16 *540:44 *763:23 0.00870508
17 *729:29 *763:23 0.00030287
18 *731:29 *763:23 0.0148167
19 *732:13 *763:25 0.040303
20 *737:28 *763:25 0.0400043
21 *739:15 *763:25 0.000194395
22 *755:17 *804:mem_rdata[7] 0.00308679
23 *758:17 *804:mem_rdata[7] 0.00282234
24 *762:11 *763:23 0.00030287
*RES
1 *803:cpu_mem_rdata[7] *763:5 99.5025 
2 *763:5 *763:23 39.8093 
3 *763:23 *763:25 456.555 
4 *763:25 *804:mem_rdata[7] 28.3908 
*END

*D_NET *764 0.161628
*CONN
*I *804:mem_rdata[8] I *D picorv32_soc
*I *803:cpu_mem_rdata[8] O *D memory_macro
*CAP
1 *804:mem_rdata[8] 0.00286288
2 *803:cpu_mem_rdata[8] 0.00554358
3 *764:13 0.0231306
4 *764:11 0.0233389
5 *764:5 0.00861479
6 *804:mem_rdata[8] *772:15 0.00199521
7 *804:mem_rdata[8] *794:11 0.0119608
8 *764:11 *765:11 0.0154349
9 *764:11 *793:27 0.00164412
10 *803:cpu_mem_addr[6] *764:11 0.00397631
11 *804:io_in[3] *764:13 0
12 *804:mem_rdata[11] *804:mem_rdata[8] 0.013907
13 *804:mem_rdata[13] *804:mem_rdata[8] 0.000218386
14 *804:mem_rdata[15] *804:mem_rdata[8] 0.0032004
15 *79:8 *764:13 0
16 *732:19 *764:11 0.0187121
17 *733:10 *764:13 0.0241417
18 *757:17 *804:mem_rdata[8] 0.00281663
19 *761:15 *764:5 2.67006e-05
20 *761:15 *764:11 0.000103162
*RES
1 *803:cpu_mem_rdata[8] *764:5 98.9925 
2 *764:5 *764:11 28.8021 
3 *764:11 *764:13 77.2135 
4 *764:13 *804:mem_rdata[8] 26.9187 
*END

*D_NET *765 0.139834
*CONN
*I *804:mem_rdata[9] I *D picorv32_soc
*I *803:cpu_mem_rdata[9] O *D memory_macro
*CAP
1 *804:mem_rdata[9] 0.00323623
2 *803:cpu_mem_rdata[9] 0.00551867
3 *765:13 0.0228664
4 *765:11 0.0250981
5 *765:5 0.0109866
6 *804:mem_rdata[9] *786:14 0.000242508
7 *765:11 *793:27 0.000422695
8 *803:cpu_mem_addr[6] *765:11 0.00642534
9 *804:mem_rdata[10] *804:mem_rdata[9] 0.000520823
10 *804:mem_rdata[12] *804:mem_rdata[9] 0.000520823
11 *804:mem_rdata[16] *804:mem_rdata[9] 0.00114773
12 *804:mem_rdata[1] *804:mem_rdata[9] 0.00142256
13 *804:mem_rdata[4] *804:mem_rdata[9] 0.00196881
14 *804:mem_rdata[6] *804:mem_rdata[9] 0.0108813
15 *724:10 *765:13 0
16 *727:16 *804:mem_rdata[9] 0.000128993
17 *733:10 *765:13 0.023985
18 *756:22 *804:mem_rdata[9] 0.000899136
19 *759:17 *804:mem_rdata[9] 0.00812749
20 *764:11 *765:11 0.0154349
*RES
1 *803:cpu_mem_rdata[9] *765:5 98.4825 
2 *765:5 *765:11 23.9077 
3 *765:11 *765:13 75.6631 
4 *765:13 *804:mem_rdata[9] 24.8874 
*END

*D_NET *766 0.197137
*CONN
*I *803:cpu_mem_wdata[0] I *D memory_macro
*I *804:mem_wdata[0] O *D picorv32_soc
*CAP
1 *803:cpu_mem_wdata[0] 3.48835e-05
2 *804:mem_wdata[0] 0.000304603
3 *766:27 0.0308242
4 *766:25 0.0586413
5 *766:9 0.0312052
6 *766:7 0.00365776
7 *766:9 *772:17 0.0102833
8 *766:9 *774:17 0.00192368
9 *766:9 *776:15 0.000212024
10 *766:9 *776:17 6.65438e-05
11 *766:25 *772:15 4.32417e-05
12 *766:25 *775:9 0.000242183
13 *766:25 *777:17 0.00495799
14 *766:25 *788:23 0.0204491
15 *804:io_in[21] *766:25 0.00297583
16 *804:mem_rdata[11] *766:9 0.00296041
17 *804:mem_rdata[17] *766:25 0.000420309
18 *804:mem_rdata[18] *766:9 0.000185594
19 *804:mem_rdata[19] *766:25 0.000806376
20 *49:15 *766:27 0.00132302
21 *56:15 *766:27 0
22 *91:9 *766:27 0.00831832
23 *742:9 *766:9 0.0120046
24 *743:9 *766:9 1.19928e-05
25 *744:9 *766:9 0.000363483
26 *754:35 *766:9 0
27 *757:17 *766:9 0.00492123
*RES
1 *804:mem_wdata[0] *766:7 6.26 
2 *766:7 *766:9 172.26 
3 *766:9 *766:25 10.4832 
4 *766:25 *766:27 94.1817 
5 *766:27 *803:cpu_mem_wdata[0] 1.06713 
*END

*D_NET *767 0.180646
*CONN
*I *803:cpu_mem_wdata[10] I *D memory_macro
*I *804:mem_wdata[10] O *D picorv32_soc
*CAP
1 *803:cpu_mem_wdata[10] 0.00326881
2 *804:mem_wdata[10] 0.00400921
3 *767:13 0.0231121
4 *767:11 0.0238525
5 *803:cpu_mem_wdata[10] *803:cpu_mem_wdata[11] 0.000673313
6 *803:cpu_mem_wdata[10] *803:cpu_mem_wdata[12] 0.00150047
7 *803:cpu_mem_wdata[10] *803:cpu_mem_wdata[13] 6.36324e-05
8 *803:cpu_mem_wdata[10] *803:cpu_mem_wdata[8] 0.00163985
9 *803:cpu_mem_wdata[10] *803:cpu_mem_wdata[9] 0.00137408
10 *767:11 *769:13 0.00214588
11 *767:11 *771:11 0.018483
12 *767:11 *773:11 0.000311819
13 *767:11 *782:9 0
14 *767:11 *788:23 0.00193989
15 *767:11 *793:9 0.00282704
16 *767:11 *795:11 0.014708
17 *767:13 *768:15 0.000228063
18 *767:13 *770:13 0.0494081
19 *804:mem_rdata[15] *767:11 0.000723344
20 *584:19 *803:cpu_mem_wdata[10] 3.35743e-05
21 *735:24 *803:cpu_mem_wdata[10] 0.0110749
22 *736:24 *803:cpu_mem_wdata[10] 0.00198922
23 *737:26 *803:cpu_mem_wdata[10] 0.0060618
24 *740:10 *767:13 0.00798281
25 *741:13 *767:13 0
26 *747:9 *767:11 0.00313351
27 *748:19 *767:11 0.000101386
*RES
1 *804:mem_wdata[10] *767:11 38.5298 
2 *767:11 *767:13 562.125 
3 *767:13 *803:cpu_mem_wdata[10] 23.7917 
*END

*D_NET *768 0.185515
*CONN
*I *803:cpu_mem_wdata[11] I *D memory_macro
*I *804:mem_wdata[11] O *D picorv32_soc
*CAP
1 *803:cpu_mem_wdata[11] 0.00260982
2 *804:mem_wdata[11] 0.00447984
3 *768:15 0.0128358
4 *768:13 0.0147058
5 *803:cpu_mem_wdata[11] *803:cpu_mem_wdata[12] 0.001289
6 *803:cpu_mem_wdata[11] *803:cpu_mem_wdata[13] 0.000286096
7 *803:cpu_mem_wdata[11] *803:cpu_mem_wdata[8] 0.00507143
8 *803:cpu_mem_wdata[11] *803:cpu_mem_wdata[9] 0.00108166
9 *768:13 *770:11 0
10 *768:13 *774:15 5.77558e-05
11 *768:13 *775:9 0.0013035
12 *768:13 *777:17 0.00405049
13 *768:13 *794:11 0.000274286
14 *768:15 *770:13 0.0494081
15 *768:15 *786:18 0
16 *768:15 *801:18 0.0408619
17 *803:cpu_mem_wdata[10] *803:cpu_mem_wdata[11] 0.000673313
18 *804:mem_rdata[11] *768:13 0
19 *804:mem_rdata[13] *768:13 0.00884363
20 *804:mem_rdata[15] *768:13 0.00420971
21 *804:mem_rdata[17] *768:13 0.00340864
22 *804:mem_rdata[7] *768:13 0.0136167
23 *73:9 *768:15 0.000528407
24 *584:19 *803:cpu_mem_wdata[11] 0.00059812
25 *736:24 *803:cpu_mem_wdata[11] 0.00792028
26 *740:10 *768:15 0.00717273
27 *767:13 *768:15 0.000228063
*RES
1 *804:mem_wdata[11] *768:13 37.8865 
2 *768:13 *768:15 560.085 
3 *768:15 *803:cpu_mem_wdata[11] 18.5553 
*END

*D_NET *769 0.183976
*CONN
*I *803:cpu_mem_wdata[12] I *D memory_macro
*I *804:mem_wdata[12] O *D picorv32_soc
*CAP
1 *803:cpu_mem_wdata[12] 0.00544876
2 *804:mem_wdata[12] 0.00603877
3 *769:15 0.0366164
4 *769:13 0.0372064
5 *803:cpu_mem_wdata[12] *803:cpu_mem_wdata[9] 0.000536918
6 *769:13 *771:11 0.000162422
7 *769:13 *782:9 0.00333301
8 *769:13 *788:23 0.00273667
9 *769:13 *795:11 0.0147046
10 *769:15 *771:13 0.010636
11 *769:15 *792:13 0.00902603
12 *769:15 *793:13 0.00980605
13 *769:15 *794:13 0.00839963
14 *769:15 *796:13 0.0125987
15 *803:cpu_mem_wdata[10] *803:cpu_mem_wdata[12] 0.00150047
16 *803:cpu_mem_wdata[11] *803:cpu_mem_wdata[12] 0.001289
17 *804:mem_rdata[15] *769:13 0.000576844
18 *804:mem_rdata[19] *769:13 0
19 *804:mem_rdata[21] *769:13 0.00175638
20 *804:mem_rdata[22] *769:13 0.000834537
21 *804:mem_rdata[23] *769:13 0.000129924
22 *67:9 *769:15 0.00685331
23 *68:11 *769:15 0
24 *143:9 *769:15 0.00648321
25 *584:19 *803:cpu_mem_wdata[12] 0.000292826
26 *730:14 *769:15 0
27 *735:24 *803:cpu_mem_wdata[12] 0.00259447
28 *736:24 *803:cpu_mem_wdata[12] 0.0011345
29 *737:26 *803:cpu_mem_wdata[12] 0.0011345
30 *740:10 *769:15 0
31 *767:11 *769:13 0.00214588
*RES
1 *804:mem_wdata[12] *769:13 41.8935 
2 *769:13 *769:15 95.5599 
3 *769:15 *803:cpu_mem_wdata[12] 3.43637 
*END

*D_NET *770 0.187448
*CONN
*I *803:cpu_mem_wdata[13] I *D memory_macro
*I *804:mem_wdata[13] O *D picorv32_soc
*CAP
1 *803:cpu_mem_wdata[13] 0.00158681
2 *804:mem_wdata[13] 0.00596858
3 *770:13 0.00955108
4 *770:11 0.0139329
5 *803:cpu_mem_wdata[13] *803:cpu_mem_wdata[14] 0.000158855
6 *803:cpu_mem_wdata[13] *803:cpu_mem_wdata[8] 0.000233014
7 *803:cpu_mem_wdata[13] *803:cpu_mem_wdata[9] 0.000449338
8 *770:11 *791:9 0.00136903
9 *770:11 *792:9 0.00211249
10 *770:11 *794:11 0
11 *770:11 *798:19 0.00293703
12 *803:cpu_mem_wdata[10] *803:cpu_mem_wdata[13] 6.36324e-05
13 *803:cpu_mem_wdata[11] *803:cpu_mem_wdata[13] 0.000286096
14 *804:mem_rdata[11] *770:11 0.000142358
15 *804:mem_rdata[14] *770:11 0.0195
16 *804:mem_rdata[16] *770:11 0
17 *529:28 *803:cpu_mem_wdata[13] 0.000687023
18 *584:19 *803:cpu_mem_wdata[13] 0.000735553
19 *730:12 *770:11 0.000116403
20 *732:11 *770:11 0.0141526
21 *735:24 *803:cpu_mem_wdata[13] 8.11917e-05
22 *736:24 *803:cpu_mem_wdata[13] 9.40771e-05
23 *738:21 *803:cpu_mem_wdata[13] 0.00104559
24 *738:23 *803:cpu_mem_wdata[13] 5.8023e-05
25 *739:13 *803:cpu_mem_wdata[13] 0.000691147
26 *740:8 *803:cpu_mem_wdata[13] 4.43752e-05
27 *740:10 *770:13 0.00744521
28 *746:9 *770:11 0.000102021
29 *754:35 *770:11 0.00508706
30 *767:13 *770:13 0.0494081
31 *768:13 *770:11 0
32 *768:15 *770:13 0.0494081
*RES
1 *804:mem_wdata[13] *770:11 35.6433 
2 *770:11 *770:13 554.475 
3 *770:13 *803:cpu_mem_wdata[13] 38.2122 
*END

*D_NET *771 0.188038
*CONN
*I *803:cpu_mem_wdata[14] I *D memory_macro
*I *804:mem_wdata[14] O *D picorv32_soc
*CAP
1 *803:cpu_mem_wdata[14] 0.000473547
2 *804:mem_wdata[14] 0.00422603
3 *771:13 0.0107221
4 *771:11 0.0144746
5 *771:11 *773:11 0.0222429
6 *771:11 *788:23 0.0033206
7 *771:13 *793:13 0.0409388
8 *771:13 *796:13 0.0498974
9 *803:cpu_mem_wdata[13] *803:cpu_mem_wdata[14] 0.000158855
10 *804:mem_rdata[15] *771:11 0.000831219
11 *804:mem_rdata[22] *771:11 0.00339388
12 *529:28 *803:cpu_mem_wdata[14] 0.000900423
13 *741:13 *771:13 0
14 *748:19 *771:11 0.00340782
15 *749:19 *771:11 0.0037687
16 *767:11 *771:11 0.018483
17 *769:13 *771:11 0.000162422
18 *769:15 *771:13 0.010636
*RES
1 *804:mem_wdata[14] *771:11 42.7977 
2 *771:11 *771:13 560.722 
3 *771:13 *803:cpu_mem_wdata[14] 14.05 
*END

*D_NET *772 0.121915
*CONN
*I *803:cpu_mem_wdata[15] I *D memory_macro
*I *804:mem_wdata[15] O *D picorv32_soc
*CAP
1 *803:cpu_mem_wdata[15] 0.0308709
2 *804:mem_wdata[15] 0.00244811
3 *772:19 0.0308709
4 *772:17 0.00217701
5 *772:15 0.00462511
6 *772:15 *774:15 6.60178e-06
7 *772:15 *776:15 0.00190125
8 *804:mem_rdata[11] *772:15 0.00151748
9 *804:mem_rdata[11] *772:17 0.00296852
10 *804:mem_rdata[13] *772:15 0.00668746
11 *804:mem_rdata[14] *772:15 6.27395e-05
12 *804:mem_rdata[15] *772:15 0.00224778
13 *804:mem_rdata[17] *772:15 0.00110712
14 *804:mem_rdata[18] *772:15 0.000646595
15 *804:mem_rdata[20] *772:15 1.79809e-05
16 *804:mem_rdata[8] *772:15 0.00199521
17 *35:9 *803:cpu_mem_wdata[15] 0.0019428
18 *742:9 *772:17 0.00292322
19 *757:17 *772:15 0.00104166
20 *757:17 *772:17 0.0155301
21 *766:9 *772:17 0.0102833
22 *766:25 *772:15 4.32417e-05
*RES
1 *804:mem_wdata[15] *772:15 22.3343 
2 *772:15 *772:17 140.865 
3 *772:17 *772:19 2 
4 *772:19 *803:cpu_mem_wdata[15] 555.825 
*END

*D_NET *773 0.144942
*CONN
*I *803:cpu_mem_wdata[16] I *D memory_macro
*I *804:mem_wdata[16] O *D picorv32_soc
*CAP
1 *803:cpu_mem_wdata[16] 0.0310615
2 *804:mem_wdata[16] 0.000520079
3 *773:11 0.0366925
4 *773:7 0.00615103
5 *773:11 *775:9 0.0289383
6 *773:11 *782:9 0
7 *773:11 *787:16 0.0001465
8 *773:11 *788:23 0.00346715
9 *804:mem_rdata[15] *773:11 0.00112046
10 *804:mem_rdata[22] *773:11 0.00106386
11 *804:mem_rdata[30] *773:7 0.00011912
12 *748:19 *773:11 0.000853085
13 *749:19 *773:11 0.000925384
14 *750:19 *773:11 0.00575103
15 *751:19 *773:11 0.005577
16 *767:11 *773:11 0.000311819
17 *771:11 *773:11 0.0222429
*RES
1 *804:mem_wdata[16] *773:7 8.7125 
2 *773:7 *773:11 43.5388 
3 *773:11 *803:cpu_mem_wdata[16] 559.523 
*END

*D_NET *774 0.134796
*CONN
*I *803:cpu_mem_wdata[17] I *D memory_macro
*I *804:mem_wdata[17] O *D picorv32_soc
*CAP
1 *803:cpu_mem_wdata[17] 0.0307506
2 *804:mem_wdata[17] 0.00149968
3 *774:19 0.0307506
4 *774:17 0.00371086
5 *774:15 0.00521054
6 *774:15 *798:19 0.000643524
7 *804:mem_rdata[11] *774:17 0.0032727
8 *804:mem_rdata[14] *774:15 0.00230698
9 *804:mem_rdata[18] *774:15 0.00547035
10 *804:mem_rdata[28] *774:15 0.00146037
11 *742:9 *774:17 0.0212854
12 *743:9 *774:17 0.0259991
13 *757:17 *774:17 0.000446989
14 *766:9 *774:17 0.00192368
15 *768:13 *774:15 5.77558e-05
16 *772:15 *774:15 6.60178e-06
*RES
1 *804:mem_wdata[17] *774:15 15.2834 
2 *774:15 *774:17 239.535 
3 *774:17 *774:19 2 
4 *774:19 *803:cpu_mem_wdata[17] 555.06 
*END

*D_NET *775 0.171834
*CONN
*I *803:cpu_mem_wdata[18] I *D memory_macro
*I *804:mem_wdata[18] O *D picorv32_soc
*CAP
1 *803:cpu_mem_wdata[18] 0.0309651
2 *804:mem_wdata[18] 0.00049733
3 *775:11 0.0309651
4 *775:9 0.00973603
5 *775:7 0.0102334
6 *775:9 *777:17 0.0106646
7 *775:9 *782:9 0
8 *804:mem_rdata[15] *775:9 0.00435351
9 *804:mem_rdata[22] *775:9 0.00077528
10 *804:mem_rdata[7] *775:9 0.0136167
11 *105:9 *803:cpu_mem_wdata[18] 0.00684689
12 *748:19 *775:9 0.000813158
13 *749:19 *775:9 0.00110016
14 *752:31 *775:9 0.00801571
15 *753:31 *775:9 0.00764728
16 *755:17 *775:9 0.00241819
17 *758:17 *775:9 0.00270116
18 *766:25 *775:9 0.000242183
19 *768:13 *775:9 0.0013035
20 *773:11 *775:9 0.0289383
*RES
1 *804:mem_wdata[18] *775:7 8.2025 
2 *775:7 *775:9 54.6921 
3 *775:9 *775:11 0.5 
4 *775:11 *803:cpu_mem_wdata[18] 559.013 
*END

*D_NET *776 0.162595
*CONN
*I *803:cpu_mem_wdata[19] I *D memory_macro
*I *804:mem_wdata[19] O *D picorv32_soc
*CAP
1 *803:cpu_mem_wdata[19] 0.0306685
2 *804:mem_wdata[19] 0.00184824
3 *776:19 0.0306685
4 *776:17 0.00490503
5 *776:15 0.00675328
6 *776:15 *777:17 0.000113048
7 *804:mem_rdata[14] *776:17 0.00422218
8 *804:mem_rdata[15] *776:15 0.000284109
9 *804:mem_rdata[17] *776:15 0.000579395
10 *804:mem_rdata[19] *776:15 0.000582714
11 *804:mem_rdata[20] *776:15 0.00559575
12 *104:9 *803:cpu_mem_wdata[19] 0.00874492
13 *744:9 *776:17 0.0314709
14 *746:9 *776:17 0.0334546
15 *754:35 *776:17 2.21074e-05
16 *757:17 *776:15 0.000501472
17 *757:17 *776:17 0
18 *766:9 *776:15 0.000212024
19 *766:9 *776:17 6.65438e-05
20 *772:15 *776:15 0.00190125
*RES
1 *804:mem_wdata[19] *776:15 17.8334 
2 *776:15 *776:17 308.535 
3 *776:17 *776:19 2 
4 *776:19 *803:cpu_mem_wdata[19] 554.295 
*END

*D_NET *777 0.167933
*CONN
*I *803:cpu_mem_wdata[1] I *D memory_macro
*I *804:mem_wdata[1] O *D picorv32_soc
*CAP
1 *803:cpu_mem_wdata[1] 0.0321308
2 *804:mem_wdata[1] 0.00073867
3 *777:19 0.0321308
4 *777:17 0.0150275
5 *777:15 0.0152483
6 *777:9 0.00347969
7 *777:7 0.00399762
8 *777:9 *793:9 0.00686726
9 *777:9 *795:11 0.00201959
10 *777:15 *795:11 0
11 *777:17 *788:23 0.0023617
12 *804:io_in[21] *777:17 0.0159154
13 *804:io_in[22] *777:17 0
14 *804:mem_rdata[15] *777:17 0.00153161
15 *804:mem_rdata[17] *777:17 0.000741195
16 *804:mem_rdata[19] *777:17 0.00580728
17 *804:mem_rdata[20] *777:17 0
18 *804:mem_rdata[22] *777:17 0.000913545
19 *804:mem_rdata[28] *777:17 0
20 *804:mem_rdata[29] *777:17 0.000751998
21 *804:mem_rdata[31] *777:17 0.000344802
22 *43:9 *777:9 0
23 *747:9 *777:9 0.00140092
24 *748:19 *777:9 0.000235842
25 *753:31 *777:17 0.000107567
26 *755:17 *777:17 0.00297766
27 *758:17 *777:17 0.00341671
28 *766:25 *777:17 0.00495799
29 *768:13 *777:17 0.00405049
30 *775:9 *777:17 0.0106646
31 *776:15 *777:17 0.000113048
*RES
1 *804:mem_wdata[1] *777:7 11.87 
2 *777:7 *777:9 88.425 
3 *777:9 *777:15 5.2825 
4 *777:15 *777:17 58.6543 
5 *777:17 *777:19 0.5 
6 *777:19 *803:cpu_mem_wdata[1] 558.503 
*END

*D_NET *778 0.222386
*CONN
*I *803:cpu_mem_wdata[20] I *D memory_macro
*I *804:mem_wdata[20] O *D picorv32_soc
*CAP
1 *803:cpu_mem_wdata[20] 0.00839916
2 *804:mem_wdata[20] 0.000976581
3 *778:11 0.00839916
4 *778:9 0.0106023
5 *778:7 0.0115789
6 *803:cpu_mem_wdata[20] *787:18 0.00436914
7 *803:cpu_mem_wdata[20] *789:13 0.0498166
8 *803:cpu_mem_wdata[20] *790:13 0.0498651
9 *778:9 *780:9 0.0433399
10 *778:9 *790:9 0.0029636
11 *778:9 *796:11 0.0161002
12 *80:15 *778:9 0.0107209
13 *103:9 *803:cpu_mem_wdata[20] 0.00525446
*RES
1 *804:mem_wdata[20] *778:7 15.8525 
2 *778:7 *778:9 66.3455 
3 *778:9 *778:11 0.5 
4 *778:11 *803:cpu_mem_wdata[20] 566.662 
*END

*D_NET *779 0.192021
*CONN
*I *803:cpu_mem_wdata[21] I *D memory_macro
*I *804:mem_wdata[21] O *D picorv32_soc
*CAP
1 *803:cpu_mem_wdata[21] 0.0312689
2 *804:mem_wdata[21] 0.00088498
3 *779:11 0.0312689
4 *779:9 0.00843432
5 *779:7 0.0093193
6 *779:9 *780:9 0.0466986
7 *779:9 *781:9 0.0468876
8 *779:9 *787:16 0.00988783
9 *804:io_in[2] *803:cpu_mem_wdata[21] 0.00162722
10 *804:mem_rdata[27] *779:7 0
11 *804:mem_rdata[29] *779:7 5.9359e-05
12 *44:5 *779:7 0
13 *90:11 *803:cpu_mem_wdata[21] 0.000358094
14 *102:9 *803:cpu_mem_wdata[21] 0.00532549
15 *681:13 *803:cpu_mem_wdata[21] 0
16 *682:10 *803:cpu_mem_wdata[21] 0
17 *683:23 *803:cpu_mem_wdata[21] 0
*RES
1 *804:mem_wdata[21] *779:7 14.8325 
2 *779:7 *779:9 72.1721 
3 *779:9 *779:11 0.5 
4 *779:11 *803:cpu_mem_wdata[21] 565.643 
*END

*D_NET *780 0.242274
*CONN
*I *803:cpu_mem_wdata[22] I *D memory_macro
*I *804:mem_wdata[22] O *D picorv32_soc
*CAP
1 *803:cpu_mem_wdata[22] 0.00119209
2 *804:mem_wdata[22] 0.000932745
3 *780:13 0.009804
4 *780:11 0.0086119
5 *780:9 0.00850316
6 *780:7 0.0094359
7 *780:9 *781:9 0.000556362
8 *780:13 *781:13 0
9 *780:13 *782:13 0.000168959
10 *33:9 *780:13 0.00228761
11 *80:15 *780:9 0.00101798
12 *141:9 *780:13 0.00297745
13 *584:19 *803:cpu_mem_wdata[22] 0.000505762
14 *682:14 *803:cpu_mem_wdata[22] 0.00329918
15 *683:25 *803:cpu_mem_wdata[22] 0.00272431
16 *748:13 *803:cpu_mem_wdata[22] 0.00040558
17 *750:11 *803:cpu_mem_wdata[22] 0.000149148
18 *751:11 *803:cpu_mem_wdata[22] 0.000165928
19 *752:25 *803:cpu_mem_wdata[22] 5.25725e-05
20 *752:27 *780:13 0.000453263
21 *753:25 *803:cpu_mem_wdata[22] 5.55785e-05
22 *754:29 *803:cpu_mem_wdata[22] 0.000796369
23 *755:13 *780:13 0.0491854
24 *757:13 *780:13 0.0489537
25 *778:9 *780:9 0.0433399
26 *779:9 *780:9 0.0466986
*RES
1 *804:mem_wdata[22] *780:7 15.3425 
2 *780:7 *780:9 70.832 
3 *780:9 *780:11 0.5 
4 *780:11 *780:13 567.735 
5 *780:13 *803:cpu_mem_wdata[22] 8.2048 
*END

*D_NET *781 0.256147
*CONN
*I *803:cpu_mem_wdata[23] I *D memory_macro
*I *804:mem_wdata[23] O *D picorv32_soc
*CAP
1 *803:cpu_mem_wdata[23] 0.00346275
2 *804:mem_wdata[23] 0.000850178
3 *781:13 0.0115287
4 *781:11 0.00806598
5 *781:9 0.00776831
6 *781:7 0.00861849
7 *803:cpu_mem_wdata[23] *790:19 0.00167105
8 *781:9 *782:9 0.000639095
9 *781:9 *783:9 0.0475795
10 *781:9 *787:16 0.00970672
11 *781:13 *782:13 0.000245104
12 *804:mem_rdata[31] *781:7 4.69728e-05
13 *80:15 *781:9 0.000313632
14 *141:9 *781:13 0.00455384
15 *552:21 *803:cpu_mem_wdata[23] 0.000642044
16 *609:17 *803:cpu_mem_wdata[23] 0
17 *685:18 *803:cpu_mem_wdata[23] 0.00462151
18 *747:5 *781:13 0
19 *753:27 *781:13 0.0493082
20 *754:31 *781:13 0.0488326
21 *758:13 *781:13 0.000248732
22 *779:9 *781:9 0.0468876
23 *780:9 *781:9 0.000556362
24 *780:13 *781:13 0
*RES
1 *804:mem_wdata[23] *781:7 14.3225 
2 *781:7 *781:9 72.5217 
3 *781:9 *781:11 0.5 
4 *781:11 *781:13 558.555 
5 *781:13 *803:cpu_mem_wdata[23] 19.0242 
*END

*D_NET *782 0.247803
*CONN
*I *803:cpu_mem_wdata[24] I *D memory_macro
*I *804:mem_wdata[24] O *D picorv32_soc
*CAP
1 *803:cpu_mem_wdata[24] 0.00368085
2 *804:mem_wdata[24] 0.000807659
3 *782:13 0.011512
4 *782:11 0.00783112
5 *782:9 0.0133051
6 *782:7 0.0141128
7 *803:cpu_mem_wdata[24] *803:cpu_mem_wdata[25] 0.0105997
8 *782:9 *783:9 0.0485089
9 *782:9 *787:16 0.011694
10 *804:mem_rdata[21] *782:9 0.0136329
11 *804:mem_rdata[24] *782:9 0.00167299
12 *804:mem_rdata[25] *782:9 0.00011743
13 *141:9 *782:13 0.0054908
14 *531:14 *803:cpu_mem_wdata[24] 0.00232578
15 *752:27 *782:13 0.0490728
16 *753:27 *782:13 0.0490518
17 *767:11 *782:9 0
18 *769:13 *782:9 0.00333301
19 *773:11 *782:9 0
20 *775:9 *782:9 0
21 *780:13 *782:13 0.000168959
22 *781:9 *782:9 0.000639095
23 *781:13 *782:13 0.000245104
*RES
1 *804:mem_wdata[24] *782:7 13.3025 
2 *782:7 *782:9 73.8036 
3 *782:9 *782:11 0.5 
4 *782:11 *782:13 554.475 
5 *782:13 *803:cpu_mem_wdata[24] 26.629 
*END

*D_NET *783 0.240606
*CONN
*I *803:cpu_mem_wdata[25] I *D memory_macro
*I *804:mem_wdata[25] O *D picorv32_soc
*CAP
1 *803:cpu_mem_wdata[25] 0.00389016
2 *804:mem_wdata[25] 0.000814441
3 *783:13 0.0245659
4 *783:11 0.0206757
5 *783:9 0.00804298
6 *783:7 0.00885742
7 *803:cpu_mem_wdata[25] *803:cpu_mem_wdata[29] 0.0146852
8 *803:cpu_mem_wdata[25] *789:19 3.526e-05
9 *783:9 *787:16 0.0106667
10 *783:13 *787:18 0.0123703
11 *783:13 *790:13 0.0287696
12 *803:cpu_mem_wdata[24] *803:cpu_mem_wdata[25] 0.0105997
13 *804:mem_rdata[25] *783:9 0.000112575
14 *804:mem_rdata[26] *783:9 0
15 *80:15 *783:9 0.000431206
16 *531:14 *803:cpu_mem_wdata[25] 0
17 *781:9 *783:9 0.0475795
18 *782:9 *783:9 0.0485089
*RES
1 *804:mem_wdata[25] *783:7 13.8125 
2 *783:7 *783:9 73.5123 
3 *783:9 *783:11 0.5 
4 *783:11 *783:13 555.495 
5 *783:13 *803:cpu_mem_wdata[25] 32.237 
*END

*D_NET *784 0.188781
*CONN
*I *803:cpu_mem_wdata[26] I *D memory_macro
*I *804:mem_wdata[26] O *D picorv32_soc
*CAP
1 *803:cpu_mem_wdata[26] 0.000156851
2 *804:mem_wdata[26] 0.00464892
3 *784:27 0.00731362
4 *784:25 0.00715676
5 *784:23 0.0302999
6 *784:21 0.0302999
7 *784:19 0.00677664
8 *784:17 0.0114256
9 *784:17 *785:12 0.00933551
10 *784:17 *786:12 1.94811e-05
11 *784:17 *786:14 0.00313455
12 *784:17 *799:21 0.00204503
13 *784:19 *785:14 0.0147994
14 *784:19 *786:14 0.0199772
15 *784:19 *799:21 0.000395208
16 *784:27 *786:22 0.021621
17 *803:wbs_adr_i[12] *784:27 0.000654752
18 *804:mem_rdata[10] *784:19 0.00354762
19 *804:mem_rdata[12] *784:17 0.000143096
20 *804:mem_rdata[16] *784:17 0.00218331
21 *546:19 *784:27 0.00384476
22 *726:11 *784:19 0.0059602
23 *727:16 *784:17 0.00304175
24 *744:5 *784:23 0
25 *759:17 *784:17 0
*RES
1 *804:mem_wdata[26] *784:17 28.2769 
2 *784:17 *784:19 279.555 
3 *784:19 *784:21 2 
4 *784:21 *784:23 548.355 
5 *784:23 *784:25 2 
6 *784:25 *784:27 199.17 
7 *784:27 *803:cpu_mem_wdata[26] 4.22 
*END

*D_NET *785 0.174364
*CONN
*I *803:cpu_mem_wdata[27] I *D memory_macro
*I *804:mem_wdata[27] O *D picorv32_soc
*CAP
1 *803:cpu_mem_wdata[27] 0.0053728
2 *804:mem_wdata[27] 0.00155951
3 *785:24 0.0053728
4 *785:22 0.0114251
5 *785:20 0.0114251
6 *785:18 0.0251595
7 *785:16 0.0251595
8 *785:14 0.0108377
9 *785:12 0.0123972
10 *785:12 *786:12 0.00129935
11 *785:12 *799:21 0.0106803
12 *785:14 *786:14 0.00168072
13 *785:14 *791:9 0.00126973
14 *785:14 *792:9 0
15 *785:14 *798:11 0.00273218
16 *107:9 *785:18 0.0028936
17 *726:11 *785:14 0.00586166
18 *727:16 *785:12 0.00260761
19 *729:11 *785:14 0.0103851
20 *731:21 *785:14 0.00210961
21 *746:5 *785:18 0
22 *784:17 *785:12 0.00933551
23 *784:19 *785:14 0.0147994
*RES
1 *804:mem_wdata[27] *785:12 19.5125 
2 *785:12 *785:14 346.83 
3 *785:14 *785:16 2 
4 *785:16 *785:18 455.79 
5 *785:18 *785:20 2 
6 *785:20 *785:22 194.34 
7 *785:22 *785:24 2 
8 *785:24 *803:cpu_mem_wdata[27] 95.295 
*END

*D_NET *786 0.190791
*CONN
*I *803:cpu_mem_wdata[28] I *D memory_macro
*I *804:mem_wdata[28] O *D picorv32_soc
*CAP
1 *803:cpu_mem_wdata[28] 0.000138782
2 *804:mem_wdata[28] 0.000845266
3 *786:22 0.015877
4 *786:20 0.0157383
5 *786:18 0.0304138
6 *786:16 0.0304138
7 *786:14 0.0106819
8 *786:12 0.0115272
9 *786:12 *799:21 0.000528887
10 *786:14 *799:11 0.00843555
11 *786:18 *801:18 0
12 *804:mem_rdata[10] *786:14 0.00356448
13 *804:mem_rdata[12] *786:14 0.00070216
14 *804:mem_rdata[4] *786:14 0.000102815
15 *804:mem_rdata[9] *786:14 0.000242508
16 *73:9 *786:18 0.000508929
17 *588:35 *786:22 0
18 *614:17 *786:22 0.00878278
19 *725:11 *786:14 0.0015737
20 *726:19 *786:14 0.00246086
21 *727:16 *786:12 0.000519816
22 *759:17 *786:12 0
23 *768:15 *786:18 0
24 *784:17 *786:12 1.94811e-05
25 *784:17 *786:14 0.00313455
26 *784:19 *786:14 0.0199772
27 *784:27 *786:22 0.021621
28 *785:12 *786:12 0.00129935
29 *785:14 *786:14 0.00168072
*RES
1 *804:mem_wdata[28] *786:12 6.78843 
2 *786:12 *786:14 299.565 
3 *786:14 *786:16 2 
4 *786:16 *786:18 548.355 
5 *786:18 *786:20 2 
6 *786:20 *786:22 349.935 
7 *786:22 *803:cpu_mem_wdata[28] 3.965 
*END

*D_NET *787 0.303424
*CONN
*I *803:cpu_mem_wdata[29] I *D memory_macro
*I *804:mem_wdata[29] O *D picorv32_soc
*CAP
1 *803:cpu_mem_wdata[29] 0.00715085
2 *804:mem_wdata[29] 0.0419143
3 *787:18 0.0375923
4 *787:16 0.0723557
5 *803:cpu_mem_wdata[29] *789:19 0.026674
6 *787:16 *788:23 0.00783617
7 *787:16 *799:21 0.000334518
8 *787:18 *789:13 0.00873413
9 *787:18 *790:13 0.00607001
10 *803:cpu_mem_wdata[20] *787:18 0.00436914
11 *803:cpu_mem_wdata[25] *803:cpu_mem_wdata[29] 0.0146852
12 *804:mem_rdata[15] *787:16 0.00130702
13 *804:mem_rdata[21] *787:16 0.00308538
14 *804:mem_rdata[23] *787:16 0.00204249
15 *804:mem_rdata[24] *787:16 0.00202517
16 *804:mem_rdata[25] *787:16 0.00150867
17 *32:9 *787:18 0.00162412
18 *103:9 *787:18 0.00847532
19 *117:11 *787:18 0.00116741
20 *531:14 *803:cpu_mem_wdata[29] 0
21 *759:17 *787:16 0
22 *773:11 *787:16 0.0001465
23 *779:9 *787:16 0.00988783
24 *781:9 *787:16 0.00970672
25 *782:9 *787:16 0.011694
26 *783:9 *787:16 0.0106667
27 *783:13 *787:18 0.0123703
*RES
1 *804:mem_wdata[29] *787:16 12.2564 
2 *787:16 *787:18 93.9233 
3 *787:18 *803:cpu_mem_wdata[29] 49.3527 
*END

*D_NET *788 0.205324
*CONN
*I *803:cpu_mem_wdata[2] I *D memory_macro
*I *804:mem_wdata[2] O *D picorv32_soc
*CAP
1 *803:cpu_mem_wdata[2] 0.00126714
2 *804:mem_wdata[2] 0.0199507
3 *788:25 0.0284272
4 *788:23 0.0471108
5 *803:cpu_mem_wdata[2] *803:cpu_mem_wdata[3] 0.00328278
6 *788:23 *795:11 0.00186237
7 wbs_dat_o[10] *788:25 0
8 *803:cpu_mem_addr[2] *803:cpu_mem_wdata[2] 0.000213788
9 *804:mem_rdata[15] *788:23 0.0105118
10 *804:mem_rdata[22] *788:23 0.00228335
11 *804:mem_rdata[26] *788:23 0.0013475
12 *804:mem_rdata[27] *788:23 0.00128719
13 *804:mem_rdata[29] *788:23 0.00168711
14 *804:mem_rdata[31] *788:23 0.00153436
15 *97:12 *788:25 0.00241199
16 *126:19 *788:23 0.000298102
17 *126:19 *788:25 0.000305433
18 *127:9 *788:25 0
19 *131:9 *788:23 0.000270864
20 *131:9 *788:25 0.0250051
21 *545:17 *788:25 0.000355891
22 *545:19 *803:cpu_mem_wdata[2] 0
23 *546:19 *803:cpu_mem_wdata[2] 0
24 *725:23 *788:25 0.0118453
25 *727:18 *788:25 0.00157723
26 *730:12 *788:23 0.000124991
27 *732:11 *788:23 0.00022669
28 *745:10 *788:25 0
29 *756:16 *803:cpu_mem_wdata[2] 2.46013e-05
30 *766:25 *788:23 0.0204491
31 *767:11 *788:23 0.00193989
32 *769:13 *788:23 0.00273667
33 *771:11 *788:23 0.0033206
34 *773:11 *788:23 0.00346715
35 *777:17 *788:23 0.0023617
36 *787:16 *788:23 0.00783617
*RES
1 *804:mem_wdata[2] *788:23 11.9366 
2 *788:23 *788:25 93.7333 
3 *788:25 *803:cpu_mem_wdata[2] 6.0198 
*END

*D_NET *789 0.292717
*CONN
*I *803:cpu_mem_wdata[30] I *D memory_macro
*I *804:mem_wdata[30] O *D picorv32_soc
*CAP
1 *803:cpu_mem_wdata[30] 0.000498143
2 *804:mem_wdata[30] 0.00107373
3 *789:19 0.00581027
4 *789:13 0.0248606
5 *789:11 0.0195485
6 *789:9 0.0141142
7 *789:7 0.015188
8 *789:9 *790:9 0.0524811
9 *789:9 *797:11 0.00329007
10 *789:9 *800:9 0.0288766
11 *789:13 *790:13 0.000125347
12 *789:19 *790:19 0.0297901
13 *803:cpu_mem_wdata[20] *789:13 0.0498166
14 *803:cpu_mem_wdata[25] *789:19 3.526e-05
15 *803:cpu_mem_wdata[29] *789:19 0.026674
16 *103:9 *789:13 0.00938291
17 *531:14 *789:19 0
18 *552:21 *789:19 0.00241799
19 *609:17 *789:19 0
20 *787:18 *789:13 0.00873413
*RES
1 *804:mem_wdata[30] *789:7 18.9125 
2 *789:7 *789:9 80.2712 
3 *789:9 *789:11 0.5 
4 *789:11 *789:13 561.615 
5 *789:13 *789:19 45.3789 
6 *789:19 *803:cpu_mem_wdata[30] 8.2125 
*END

*D_NET *790 0.304247
*CONN
*I *803:cpu_mem_wdata[31] I *D memory_macro
*I *804:mem_wdata[31] O *D picorv32_soc
*CAP
1 *803:cpu_mem_wdata[31] 0.00047173
2 *804:mem_wdata[31] 0.00103233
3 *790:19 0.00677169
4 *790:13 0.015792
5 *790:11 0.009492
6 *790:9 0.0163199
7 *790:7 0.0173522
8 *790:9 *796:11 0.00429529
9 *790:9 *800:9 0.00048645
10 *803:cpu_mem_wdata[20] *790:13 0.0498651
11 *803:cpu_mem_wdata[23] *790:19 0.00167105
12 *80:15 *790:9 0.00555619
13 *80:17 *790:9 0.0125338
14 *103:9 *790:13 0.00488951
15 *531:14 *790:19 0
16 *552:21 *790:19 0.00275072
17 *609:17 *790:19 0
18 *685:18 *790:19 0.0285494
19 *755:9 *790:19 0.00490955
20 *757:9 *790:19 0.000411293
21 *758:9 *790:19 0.00089744
22 *778:9 *790:9 0.0029636
23 *783:13 *790:13 0.0287696
24 *787:18 *790:13 0.00607001
25 *789:9 *790:9 0.0524811
26 *789:13 *790:13 0.000125347
27 *789:19 *790:19 0.0297901
*RES
1 *804:mem_wdata[31] *790:7 18.4025 
2 *790:7 *790:9 81.7861 
3 *790:9 *790:11 0.5 
4 *790:11 *790:13 561.615 
5 *790:13 *790:19 49.6907 
6 *790:19 *803:cpu_mem_wdata[31] 7.7025 
*END

*D_NET *791 0.22602
*CONN
*I *803:cpu_mem_wdata[3] I *D memory_macro
*I *804:mem_wdata[3] O *D picorv32_soc
*CAP
1 *803:cpu_mem_wdata[3] 0.0049784
2 *804:mem_wdata[3] 7.47672e-05
3 *791:13 0.0136054
4 *791:11 0.00862704
5 *791:9 0.00885448
6 *791:7 0.00892925
7 *791:9 *798:19 0.0331012
8 *791:13 *798:23 0
9 *791:13 *799:27 0.00377091
10 *803:cpu_mem_addr[2] *803:cpu_mem_wdata[3] 9.19512e-05
11 *803:cpu_mem_wdata[2] *803:cpu_mem_wdata[3] 0.00328278
12 *83:8 *791:9 9.09423e-06
13 *127:9 *791:13 0.00235123
14 *546:19 *803:cpu_mem_wdata[3] 0
15 *550:19 *803:cpu_mem_wdata[3] 0
16 *584:19 *803:cpu_mem_wdata[3] 0.000206697
17 *614:17 *803:cpu_mem_wdata[3] 0
18 *725:19 *791:9 0.0350697
19 *726:19 *791:9 0.000903587
20 *726:25 *791:9 0.000106615
21 *726:27 *791:13 0.0491536
22 *729:11 *791:9 0.000146016
23 *730:12 *791:9 0.00134442
24 *731:21 *791:9 0.00257959
25 *732:11 *791:9 0.00644531
26 *759:13 *791:13 0.0397489
27 *770:11 *791:9 0.00136903
28 *785:14 *791:9 0.00126973
*RES
1 *804:mem_wdata[3] *791:7 1.5725 
2 *791:7 *791:9 64.5392 
3 *791:9 *791:11 0.5 
4 *791:11 *791:13 554.475 
5 *791:13 *803:cpu_mem_wdata[3] 15.3133 
*END

*D_NET *792 0.210716
*CONN
*I *803:cpu_mem_wdata[4] I *D memory_macro
*I *804:mem_wdata[4] O *D picorv32_soc
*CAP
1 *803:cpu_mem_wdata[4] 0.00566682
2 *804:mem_wdata[4] 0.000151236
3 *792:33 0.0106349
4 *792:17 0.00860677
5 *792:15 0.00363869
6 *792:13 0.0064976
7 *792:11 0.0064976
8 *792:9 0.00353854
9 *792:7 0.00368978
10 *792:9 *798:11 0
11 *792:13 *793:13 0.0403481
12 *792:13 *794:13 0.0403481
13 *792:17 *793:17 0.000177627
14 *792:17 *794:19 0.00599574
15 *792:33 *794:19 0.000449959
16 *803:cpu_mem_addr[6] *792:33 0.000415434
17 *530:12 *792:33 3.41669e-05
18 *531:12 *792:33 3.41669e-05
19 *728:11 *792:9 0
20 *728:45 *792:33 0.00585781
21 *729:19 *792:17 0.0213422
22 *731:29 *792:33 0.0013918
23 *754:35 *792:9 0.0105304
24 *760:17 *792:17 0.0237012
25 *762:11 *792:33 2.84433e-06
26 *763:23 *792:33 2.588e-05
27 *769:15 *792:13 0.00902603
28 *770:11 *792:9 0.00211249
29 *785:14 *792:9 0
*RES
1 *804:mem_wdata[4] *792:7 4.22 
2 *792:7 *792:9 97.05 
3 *792:9 *792:11 2 
4 *792:11 *792:13 452.73 
5 *792:13 *792:15 2 
6 *792:15 *792:17 218.835 
7 *792:17 *792:33 22.2434 
8 *792:33 *803:cpu_mem_wdata[4] 101.543 
*END

*D_NET *793 0.210042
*CONN
*I *803:cpu_mem_wdata[5] I *D memory_macro
*I *804:mem_wdata[5] O *D picorv32_soc
*CAP
1 *803:cpu_mem_wdata[5] 0.00546762
2 *804:mem_wdata[5] 0.000718702
3 *793:27 0.0112692
4 *793:17 0.0113238
5 *793:15 0.00552218
6 *793:13 0.00686509
7 *793:11 0.00686509
8 *793:9 0.00255656
9 *793:7 0.00327527
10 *793:13 *794:13 0.000138873
11 *793:13 *796:13 3.20198e-05
12 *803:cpu_mem_addr[6] *793:27 0.00615972
13 *43:9 *793:9 0
14 *729:19 *793:17 0.00032005
15 *741:13 *793:13 0
16 *747:9 *793:9 0.0120387
17 *761:15 *793:27 0.0120363
18 *761:17 *793:17 0.0156778
19 *762:11 *793:17 0.00674333
20 *764:11 *793:27 0.00164412
21 *765:11 *793:27 0.000422695
22 *767:11 *793:9 0.00282704
23 *769:15 *793:13 0.00980605
24 *771:13 *793:13 0.0409388
25 *777:9 *793:9 0.00686726
26 *792:13 *793:13 0.0403481
27 *792:17 *793:17 0.000177627
*RES
1 *804:mem_wdata[5] *793:7 11.615 
2 *793:7 *793:9 109.125 
3 *793:9 *793:11 2 
4 *793:11 *793:13 460.89 
5 *793:13 *793:15 2 
6 *793:15 *793:17 151.215 
7 *793:17 *793:27 28.0345 
8 *793:27 *803:cpu_mem_wdata[5] 97.9725 
*END

*D_NET *794 0.210385
*CONN
*I *803:cpu_mem_wdata[6] I *D memory_macro
*I *804:mem_wdata[6] O *D picorv32_soc
*CAP
1 *803:cpu_mem_wdata[6] 0.00564399
2 *804:mem_wdata[6] 0.00307031
3 *794:19 0.0109084
4 *794:13 0.0140124
5 *794:11 0.0118183
6 *803:cpu_mem_addr[6] *794:19 0.00462995
7 *804:mem_rdata[11] *794:11 0.000635434
8 *804:mem_rdata[13] *794:11 0.0131413
9 *804:mem_rdata[15] *794:11 0.00285621
10 *804:mem_rdata[8] *794:11 0.0119608
11 *79:10 *794:19 0.000295285
12 *728:19 *794:19 0.000589287
13 *729:19 *794:19 0.00492102
14 *731:29 *794:19 0.025423
15 *741:13 *794:13 0.0171067
16 *757:17 *794:11 0.000212004
17 *762:11 *794:19 0.0275542
18 *768:13 *794:11 0.000274286
19 *769:15 *794:13 0.00839963
20 *770:11 *794:11 0
21 *792:13 *794:13 0.0403481
22 *792:17 *794:19 0.00599574
23 *792:33 *794:19 0.000449959
24 *793:13 *794:13 0.000138873
*RES
1 *804:mem_wdata[6] *794:11 26.8169 
2 *794:11 *794:13 456.045 
3 *794:13 *794:19 42.7569 
4 *794:19 *803:cpu_mem_wdata[6] 100.522 
*END

*D_NET *795 0.197691
*CONN
*I *803:cpu_mem_wdata[7] I *D memory_macro
*I *804:mem_wdata[7] O *D picorv32_soc
*CAP
1 *803:cpu_mem_wdata[7] 0.00505699
2 *804:mem_wdata[7] 0.00299876
3 *795:19 0.0134703
4 *795:13 0.0159178
5 *795:11 0.0105032
6 *795:19 *801:22 0.0229861
7 *803:cpu_mem_addr[6] *795:19 0.00192283
8 *804:mem_rdata[15] *795:11 0.000576844
9 *728:15 *795:13 0.0401053
10 *729:15 *795:13 3.09072e-05
11 *730:14 *795:13 0.00958151
12 *735:30 *795:13 0.0409859
13 *736:26 *795:13 0.000218251
14 *738:23 *795:13 4.1587e-05
15 *767:11 *795:11 0.014708
16 *769:13 *795:11 0.0147046
17 *777:9 *795:11 0.00201959
18 *777:15 *795:11 0
19 *788:23 *795:11 0.00186237
*RES
1 *804:mem_wdata[7] *795:11 32.5722 
2 *795:11 *795:13 470.835 
3 *795:13 *795:19 35.1823 
4 *795:19 *803:cpu_mem_wdata[7] 90.3225 
*END

*D_NET *796 0.168395
*CONN
*I *803:cpu_mem_wdata[8] I *D memory_macro
*I *804:mem_wdata[8] O *D picorv32_soc
*CAP
1 *803:cpu_mem_wdata[8] 0.005958
2 *804:mem_wdata[8] 0.00580854
3 *796:13 0.0262447
4 *796:11 0.0260953
5 *803:cpu_mem_wdata[8] *803:cpu_mem_wdata[9] 0.00774058
6 *803:cpu_mem_wdata[10] *803:cpu_mem_wdata[8] 0.00163985
7 *803:cpu_mem_wdata[11] *803:cpu_mem_wdata[8] 0.00507143
8 *803:cpu_mem_wdata[13] *803:cpu_mem_wdata[8] 0.000233014
9 *584:19 *803:cpu_mem_wdata[8] 0.000774727
10 *729:15 *796:13 0
11 *735:24 *803:cpu_mem_wdata[8] 0.00150858
12 *736:24 *803:cpu_mem_wdata[8] 0.00167401
13 *738:21 *803:cpu_mem_wdata[8] 0.00272284
14 *762:13 *796:13 0
15 *769:15 *796:13 0.0125987
16 *771:13 *796:13 0.0498974
17 *778:9 *796:11 0.0161002
18 *790:9 *796:11 0.00429529
19 *793:13 *796:13 3.20198e-05
*RES
1 *804:mem_wdata[8] *796:11 41.489 
2 *796:11 *796:13 569.265 
3 *796:13 *803:cpu_mem_wdata[8] 29.1808 
*END

*D_NET *797 0.120941
*CONN
*I *803:cpu_mem_wdata[9] I *D memory_macro
*I *804:mem_wdata[9] O *D picorv32_soc
*CAP
1 *803:cpu_mem_wdata[9] 0.0036491
2 *804:mem_wdata[9] 0.0078638
3 *797:13 0.0354163
4 *797:11 0.039631
5 *797:11 *800:9 0.00965941
6 *803:cpu_mem_wdata[10] *803:cpu_mem_wdata[9] 0.00137408
7 *803:cpu_mem_wdata[11] *803:cpu_mem_wdata[9] 0.00108166
8 *803:cpu_mem_wdata[12] *803:cpu_mem_wdata[9] 0.000536918
9 *803:cpu_mem_wdata[13] *803:cpu_mem_wdata[9] 0.000449338
10 *803:cpu_mem_wdata[8] *803:cpu_mem_wdata[9] 0.00774058
11 *43:5 *797:13 0.000223856
12 *584:19 *803:cpu_mem_wdata[9] 0.00588227
13 *735:24 *803:cpu_mem_wdata[9] 0.00138978
14 *736:24 *803:cpu_mem_wdata[9] 0.00100463
15 *737:26 *803:cpu_mem_wdata[9] 0.00115708
16 *737:28 *797:13 0
17 *738:21 *803:cpu_mem_wdata[9] 0.000369452
18 *739:13 *803:cpu_mem_wdata[9] 0.000221243
19 *739:15 *797:13 0
20 *763:25 *797:13 0
21 *789:9 *797:11 0.00329007
*RES
1 *804:mem_wdata[9] *797:11 44.3598 
2 *797:11 *797:13 571.815 
3 *797:13 *803:cpu_mem_wdata[9] 22.9792 
*END

*D_NET *798 0.18727
*CONN
*I *803:cpu_mem_we[0] I *D memory_macro
*I *804:mem_we[0] O *D picorv32_soc
*CAP
1 *803:cpu_mem_we[0] 0.00413926
2 *804:mem_we[0] 0.000229432
3 *798:23 0.0248752
4 *798:21 0.0207359
5 *798:19 0.00948454
6 *798:17 0.00957093
7 *798:11 0.0049396
8 *798:9 0.00508264
9 *803:cpu_mem_we[0] *803:cpu_mem_we[1] 0
10 *798:23 *799:27 0.0281451
11 *803:cpu_mem_addr[1] *803:cpu_mem_we[0] 0
12 *804:io_in[22] *798:19 0.00201522
13 *804:mem_rdata[14] *798:19 0.000252768
14 *804:mem_rdata[28] *798:19 0.000322014
15 *804:mem_rdata[30] *798:19 0.0122514
16 *46:15 *798:23 0.000425318
17 *83:8 *798:19 3.93771e-05
18 *127:9 *798:23 0.00646031
19 *609:17 *803:cpu_mem_we[0] 4.29716e-05
20 *725:19 *798:11 0.000346427
21 *728:11 *798:11 0.00559232
22 *729:11 *798:11 0.000793108
23 *730:12 *798:11 0.00171467
24 *731:21 *798:11 0.000445094
25 *745:8 *803:cpu_mem_we[0] 0
26 *745:10 *798:23 0.00984276
27 *754:35 *798:11 0
28 *754:35 *798:19 0.000109729
29 *770:11 *798:19 0.00293703
30 *774:15 *798:19 0.000643524
31 *785:14 *798:11 0.00273218
32 *791:9 *798:19 0.0331012
33 *791:13 *798:23 0
34 *792:9 *798:11 0
*RES
1 *804:mem_we[0] *798:9 3.92 
2 *798:9 *798:11 125.34 
3 *798:11 *798:17 3.7525 
4 *798:17 *798:19 51.1379 
5 *798:19 *798:21 0.5 
6 *798:21 *798:23 550.905 
7 *798:23 *803:cpu_mem_we[0] 12.861 
*END

*D_NET *799 0.184385
*CONN
*I *803:cpu_mem_we[1] I *D memory_macro
*I *804:mem_we[1] O *D picorv32_soc
*CAP
1 *803:cpu_mem_we[1] 0.000675786
2 *804:mem_we[1] 0.00021221
3 *799:27 0.0113803
4 *799:25 0.0132152
5 *799:21 0.0103195
6 *799:17 0.00788669
7 *799:11 0.00110907
8 *799:9 0.00124338
9 *803:cpu_mem_addr[1] *803:cpu_mem_we[1] 0.000188291
10 *803:cpu_mem_we[0] *803:cpu_mem_we[1] 0
11 *804:io_in[15] *799:21 4.21127e-05
12 *804:io_in[23] *799:25 0.00259416
13 *804:mem_rdata[10] *799:11 0.00161877
14 *804:mem_rdata[10] *799:21 0.0034406
15 *804:mem_rdata[12] *799:21 0.001456
16 *804:mem_rdata[16] *799:21 0.00092024
17 *112:8 *799:21 4.21127e-05
18 *127:9 *799:27 0.00381608
19 *129:25 *799:25 0
20 *609:17 *803:cpu_mem_we[1] 4.54618e-05
21 *725:11 *799:11 0.00843889
22 *726:19 *799:21 0.0311019
23 *726:19 *799:25 0.000595324
24 *726:25 *799:25 0.000630514
25 *727:16 *799:25 0.00111273
26 *745:10 *799:27 0.00491931
27 *759:13 *799:27 0.0230447
28 *759:17 *799:21 0
29 *759:17 *799:25 0
30 *784:17 *799:21 0.00204503
31 *784:19 *799:21 0.000395208
32 *785:12 *799:21 0.0106803
33 *786:12 *799:21 0.000528887
34 *786:14 *799:11 0.00843555
35 *787:16 *799:21 0.000334518
36 *791:13 *799:27 0.00377091
37 *798:23 *799:27 0.0281451
*RES
1 *804:mem_we[1] *799:9 3.665 
2 *799:9 *799:11 76.35 
3 *799:11 *799:17 3.4975 
4 *799:17 *799:21 47.7926 
5 *799:21 *799:25 9.5402 
6 *799:25 *799:27 544.275 
7 *799:27 *803:cpu_mem_we[1] 7.18103 
*END

*D_NET *800 0.179314
*CONN
*I *803:cpu_mem_we[2] I *D memory_macro
*I *804:mem_we[2] O *D picorv32_soc
*CAP
1 *803:cpu_mem_we[2] 0.00561334
2 *804:mem_we[2] 0.00131583
3 *800:19 0.00730839
4 *800:13 0.0185204
5 *800:11 0.0168253
6 *800:9 0.0182974
7 *800:7 0.0196132
8 *80:15 *800:9 0
9 *725:23 *800:13 0
10 *727:18 *800:13 0.00918224
11 *727:24 *800:19 0.00451885
12 *756:18 *800:13 0.0390967
13 *789:9 *800:9 0.0288766
14 *790:9 *800:9 0.00048645
15 *797:11 *800:9 0.00965941
*RES
1 *804:mem_we[2] *800:7 19.4225 
2 *800:7 *800:9 65.7045 
3 *800:9 *800:11 0.5 
4 *800:11 *800:13 469.305 
5 *800:13 *800:19 7.73867 
6 *800:19 *803:cpu_mem_we[2] 101.033 
*END

*D_NET *801 0.174989
*CONN
*I *803:cpu_mem_we[3] I *D memory_macro
*I *804:mem_we[3] O *D picorv32_soc
*CAP
1 *803:cpu_mem_we[3] 0.00500522
2 *804:mem_we[3] 0.00255728
3 *801:24 0.00500522
4 *801:22 0.0194206
5 *801:20 0.0194206
6 *801:18 0.0159734
7 *801:16 0.0185307
8 *804:mem_rdata[10] *801:16 4.21127e-05
9 *804:mem_rdata[12] *801:16 4.21127e-05
10 *804:mem_rdata[16] *801:16 0.00962247
11 *804:mem_rdata[1] *801:16 0.000243832
12 *804:mem_rdata[4] *801:16 0
13 *804:mem_rdata[5] *801:16 0.00845386
14 *804:mem_rdata[6] *801:16 0.000309384
15 *73:9 *801:18 0.000406788
16 *727:16 *801:16 0.000149343
17 *740:10 *801:18 0.00595761
18 *768:15 *801:18 0.0408619
19 *786:18 *801:18 0
20 *795:19 *801:22 0.0229861
*RES
1 *804:mem_we[3] *801:16 17.6079 
2 *801:16 *801:18 458.085 
3 *801:18 *801:20 0.5 
4 *801:20 *801:22 62.4999 
5 *801:22 *801:24 0.5 
6 *801:24 *803:cpu_mem_we[3] 89.8125 
*END
