*SPEF "ieee 1481-1999"
*DESIGN "user_project_wrapper"
*DATE "09:07:45 Saturday November 29, 2025"
*VENDOR "The OpenROAD Project"
*PROGRAM "OpenROAD"
*VERSION "edf00dff99f6c40d67a30c0e22a8191c5d2ed9d6"
*DESIGN_FLOW "NAME_SCOPE LOCAL" "PIN_CAP NONE"
*DIVIDER /
*DELIMITER :
*BUS_DELIMITER []
*T_UNIT 1 NS
*C_UNIT 1 PF
*R_UNIT 1 OHM
*L_UNIT 1 HENRY

*NAME_MAP
*1 analog_io[0]
*2 analog_io[10]
*3 analog_io[11]
*4 analog_io[12]
*5 analog_io[13]
*6 analog_io[14]
*7 analog_io[15]
*8 analog_io[16]
*9 analog_io[17]
*10 analog_io[18]
*11 analog_io[19]
*12 analog_io[1]
*13 analog_io[20]
*14 analog_io[21]
*15 analog_io[22]
*16 analog_io[23]
*17 analog_io[24]
*18 analog_io[25]
*19 analog_io[26]
*20 analog_io[27]
*21 analog_io[28]
*22 analog_io[2]
*23 analog_io[3]
*24 analog_io[4]
*25 analog_io[5]
*26 analog_io[6]
*27 analog_io[7]
*28 analog_io[8]
*29 analog_io[9]
*30 io_in[0]
*31 io_in[10]
*32 io_in[11]
*33 io_in[12]
*34 io_in[13]
*35 io_in[14]
*36 io_in[15]
*37 io_in[16]
*38 io_in[17]
*39 io_in[18]
*40 io_in[19]
*41 io_in[1]
*42 io_in[20]
*43 io_in[21]
*44 io_in[22]
*45 io_in[23]
*46 io_in[24]
*47 io_in[25]
*48 io_in[26]
*49 io_in[27]
*50 io_in[28]
*51 io_in[29]
*52 io_in[2]
*53 io_in[30]
*54 io_in[31]
*55 io_in[32]
*56 io_in[33]
*57 io_in[34]
*58 io_in[35]
*59 io_in[36]
*60 io_in[37]
*61 io_in[3]
*62 io_in[4]
*63 io_in[5]
*64 io_in[6]
*65 io_in[7]
*66 io_in[8]
*67 io_in[9]
*68 io_oeb[0]
*69 io_oeb[10]
*70 io_oeb[11]
*71 io_oeb[12]
*72 io_oeb[13]
*73 io_oeb[14]
*74 io_oeb[15]
*75 io_oeb[16]
*76 io_oeb[17]
*77 io_oeb[18]
*78 io_oeb[19]
*79 io_oeb[1]
*80 io_oeb[20]
*81 io_oeb[21]
*82 io_oeb[22]
*83 io_oeb[23]
*84 io_oeb[24]
*85 io_oeb[25]
*86 io_oeb[26]
*87 io_oeb[27]
*88 io_oeb[28]
*89 io_oeb[29]
*90 io_oeb[2]
*91 io_oeb[30]
*92 io_oeb[31]
*93 io_oeb[32]
*94 io_oeb[33]
*95 io_oeb[34]
*96 io_oeb[35]
*97 io_oeb[36]
*98 io_oeb[37]
*99 io_oeb[3]
*100 io_oeb[4]
*101 io_oeb[5]
*102 io_oeb[6]
*103 io_oeb[7]
*104 io_oeb[8]
*105 io_oeb[9]
*106 io_out[0]
*107 io_out[10]
*108 io_out[11]
*109 io_out[12]
*110 io_out[13]
*111 io_out[14]
*112 io_out[15]
*113 io_out[16]
*114 io_out[17]
*115 io_out[18]
*116 io_out[19]
*117 io_out[1]
*118 io_out[20]
*119 io_out[21]
*120 io_out[22]
*121 io_out[23]
*122 io_out[24]
*123 io_out[25]
*124 io_out[26]
*125 io_out[27]
*126 io_out[28]
*127 io_out[29]
*128 io_out[2]
*129 io_out[30]
*130 io_out[31]
*131 io_out[32]
*132 io_out[33]
*133 io_out[34]
*134 io_out[35]
*135 io_out[36]
*136 io_out[37]
*137 io_out[3]
*138 io_out[4]
*139 io_out[5]
*140 io_out[6]
*141 io_out[7]
*142 io_out[8]
*143 io_out[9]
*144 la_data_in[0]
*145 la_data_in[100]
*146 la_data_in[101]
*147 la_data_in[102]
*148 la_data_in[103]
*149 la_data_in[104]
*150 la_data_in[105]
*151 la_data_in[106]
*152 la_data_in[107]
*153 la_data_in[108]
*154 la_data_in[109]
*155 la_data_in[10]
*156 la_data_in[110]
*157 la_data_in[111]
*158 la_data_in[112]
*159 la_data_in[113]
*160 la_data_in[114]
*161 la_data_in[115]
*162 la_data_in[116]
*163 la_data_in[117]
*164 la_data_in[118]
*165 la_data_in[119]
*166 la_data_in[11]
*167 la_data_in[120]
*168 la_data_in[121]
*169 la_data_in[122]
*170 la_data_in[123]
*171 la_data_in[124]
*172 la_data_in[125]
*173 la_data_in[126]
*174 la_data_in[127]
*175 la_data_in[12]
*176 la_data_in[13]
*177 la_data_in[14]
*178 la_data_in[15]
*179 la_data_in[16]
*180 la_data_in[17]
*181 la_data_in[18]
*182 la_data_in[19]
*183 la_data_in[1]
*184 la_data_in[20]
*185 la_data_in[21]
*186 la_data_in[22]
*187 la_data_in[23]
*188 la_data_in[24]
*189 la_data_in[25]
*190 la_data_in[26]
*191 la_data_in[27]
*192 la_data_in[28]
*193 la_data_in[29]
*194 la_data_in[2]
*195 la_data_in[30]
*196 la_data_in[31]
*197 la_data_in[32]
*198 la_data_in[33]
*199 la_data_in[34]
*200 la_data_in[35]
*201 la_data_in[36]
*202 la_data_in[37]
*203 la_data_in[38]
*204 la_data_in[39]
*205 la_data_in[3]
*206 la_data_in[40]
*207 la_data_in[41]
*208 la_data_in[42]
*209 la_data_in[43]
*210 la_data_in[44]
*211 la_data_in[45]
*212 la_data_in[46]
*213 la_data_in[47]
*214 la_data_in[48]
*215 la_data_in[49]
*216 la_data_in[4]
*217 la_data_in[50]
*218 la_data_in[51]
*219 la_data_in[52]
*220 la_data_in[53]
*221 la_data_in[54]
*222 la_data_in[55]
*223 la_data_in[56]
*224 la_data_in[57]
*225 la_data_in[58]
*226 la_data_in[59]
*227 la_data_in[5]
*228 la_data_in[60]
*229 la_data_in[61]
*230 la_data_in[62]
*231 la_data_in[63]
*232 la_data_in[64]
*233 la_data_in[65]
*234 la_data_in[66]
*235 la_data_in[67]
*236 la_data_in[68]
*237 la_data_in[69]
*238 la_data_in[6]
*239 la_data_in[70]
*240 la_data_in[71]
*241 la_data_in[72]
*242 la_data_in[73]
*243 la_data_in[74]
*244 la_data_in[75]
*245 la_data_in[76]
*246 la_data_in[77]
*247 la_data_in[78]
*248 la_data_in[79]
*249 la_data_in[7]
*250 la_data_in[80]
*251 la_data_in[81]
*252 la_data_in[82]
*253 la_data_in[83]
*254 la_data_in[84]
*255 la_data_in[85]
*256 la_data_in[86]
*257 la_data_in[87]
*258 la_data_in[88]
*259 la_data_in[89]
*260 la_data_in[8]
*261 la_data_in[90]
*262 la_data_in[91]
*263 la_data_in[92]
*264 la_data_in[93]
*265 la_data_in[94]
*266 la_data_in[95]
*267 la_data_in[96]
*268 la_data_in[97]
*269 la_data_in[98]
*270 la_data_in[99]
*271 la_data_in[9]
*272 la_data_out[0]
*273 la_data_out[100]
*274 la_data_out[101]
*275 la_data_out[102]
*276 la_data_out[103]
*277 la_data_out[104]
*278 la_data_out[105]
*279 la_data_out[106]
*280 la_data_out[107]
*281 la_data_out[108]
*282 la_data_out[109]
*283 la_data_out[10]
*284 la_data_out[110]
*285 la_data_out[111]
*286 la_data_out[112]
*287 la_data_out[113]
*288 la_data_out[114]
*289 la_data_out[115]
*290 la_data_out[116]
*291 la_data_out[117]
*292 la_data_out[118]
*293 la_data_out[119]
*294 la_data_out[11]
*295 la_data_out[120]
*296 la_data_out[121]
*297 la_data_out[122]
*298 la_data_out[123]
*299 la_data_out[124]
*300 la_data_out[125]
*301 la_data_out[126]
*302 la_data_out[127]
*303 la_data_out[12]
*304 la_data_out[13]
*305 la_data_out[14]
*306 la_data_out[15]
*307 la_data_out[16]
*308 la_data_out[17]
*309 la_data_out[18]
*310 la_data_out[19]
*311 la_data_out[1]
*312 la_data_out[20]
*313 la_data_out[21]
*314 la_data_out[22]
*315 la_data_out[23]
*316 la_data_out[24]
*317 la_data_out[25]
*318 la_data_out[26]
*319 la_data_out[27]
*320 la_data_out[28]
*321 la_data_out[29]
*322 la_data_out[2]
*323 la_data_out[30]
*324 la_data_out[31]
*325 la_data_out[32]
*326 la_data_out[33]
*327 la_data_out[34]
*328 la_data_out[35]
*329 la_data_out[36]
*330 la_data_out[37]
*331 la_data_out[38]
*332 la_data_out[39]
*333 la_data_out[3]
*334 la_data_out[40]
*335 la_data_out[41]
*336 la_data_out[42]
*337 la_data_out[43]
*338 la_data_out[44]
*339 la_data_out[45]
*340 la_data_out[46]
*341 la_data_out[47]
*342 la_data_out[48]
*343 la_data_out[49]
*344 la_data_out[4]
*345 la_data_out[50]
*346 la_data_out[51]
*347 la_data_out[52]
*348 la_data_out[53]
*349 la_data_out[54]
*350 la_data_out[55]
*351 la_data_out[56]
*352 la_data_out[57]
*353 la_data_out[58]
*354 la_data_out[59]
*355 la_data_out[5]
*356 la_data_out[60]
*357 la_data_out[61]
*358 la_data_out[62]
*359 la_data_out[63]
*360 la_data_out[64]
*361 la_data_out[65]
*362 la_data_out[66]
*363 la_data_out[67]
*364 la_data_out[68]
*365 la_data_out[69]
*366 la_data_out[6]
*367 la_data_out[70]
*368 la_data_out[71]
*369 la_data_out[72]
*370 la_data_out[73]
*371 la_data_out[74]
*372 la_data_out[75]
*373 la_data_out[76]
*374 la_data_out[77]
*375 la_data_out[78]
*376 la_data_out[79]
*377 la_data_out[7]
*378 la_data_out[80]
*379 la_data_out[81]
*380 la_data_out[82]
*381 la_data_out[83]
*382 la_data_out[84]
*383 la_data_out[85]
*384 la_data_out[86]
*385 la_data_out[87]
*386 la_data_out[88]
*387 la_data_out[89]
*388 la_data_out[8]
*389 la_data_out[90]
*390 la_data_out[91]
*391 la_data_out[92]
*392 la_data_out[93]
*393 la_data_out[94]
*394 la_data_out[95]
*395 la_data_out[96]
*396 la_data_out[97]
*397 la_data_out[98]
*398 la_data_out[99]
*399 la_data_out[9]
*400 la_oenb[0]
*401 la_oenb[100]
*402 la_oenb[101]
*403 la_oenb[102]
*404 la_oenb[103]
*405 la_oenb[104]
*406 la_oenb[105]
*407 la_oenb[106]
*408 la_oenb[107]
*409 la_oenb[108]
*410 la_oenb[109]
*411 la_oenb[10]
*412 la_oenb[110]
*413 la_oenb[111]
*414 la_oenb[112]
*415 la_oenb[113]
*416 la_oenb[114]
*417 la_oenb[115]
*418 la_oenb[116]
*419 la_oenb[117]
*420 la_oenb[118]
*421 la_oenb[119]
*422 la_oenb[11]
*423 la_oenb[120]
*424 la_oenb[121]
*425 la_oenb[122]
*426 la_oenb[123]
*427 la_oenb[124]
*428 la_oenb[125]
*429 la_oenb[126]
*430 la_oenb[127]
*431 la_oenb[12]
*432 la_oenb[13]
*433 la_oenb[14]
*434 la_oenb[15]
*435 la_oenb[16]
*436 la_oenb[17]
*437 la_oenb[18]
*438 la_oenb[19]
*439 la_oenb[1]
*440 la_oenb[20]
*441 la_oenb[21]
*442 la_oenb[22]
*443 la_oenb[23]
*444 la_oenb[24]
*445 la_oenb[25]
*446 la_oenb[26]
*447 la_oenb[27]
*448 la_oenb[28]
*449 la_oenb[29]
*450 la_oenb[2]
*451 la_oenb[30]
*452 la_oenb[31]
*453 la_oenb[32]
*454 la_oenb[33]
*455 la_oenb[34]
*456 la_oenb[35]
*457 la_oenb[36]
*458 la_oenb[37]
*459 la_oenb[38]
*460 la_oenb[39]
*461 la_oenb[3]
*462 la_oenb[40]
*463 la_oenb[41]
*464 la_oenb[42]
*465 la_oenb[43]
*466 la_oenb[44]
*467 la_oenb[45]
*468 la_oenb[46]
*469 la_oenb[47]
*470 la_oenb[48]
*471 la_oenb[49]
*472 la_oenb[4]
*473 la_oenb[50]
*474 la_oenb[51]
*475 la_oenb[52]
*476 la_oenb[53]
*477 la_oenb[54]
*478 la_oenb[55]
*479 la_oenb[56]
*480 la_oenb[57]
*481 la_oenb[58]
*482 la_oenb[59]
*483 la_oenb[5]
*484 la_oenb[60]
*485 la_oenb[61]
*486 la_oenb[62]
*487 la_oenb[63]
*488 la_oenb[64]
*489 la_oenb[65]
*490 la_oenb[66]
*491 la_oenb[67]
*492 la_oenb[68]
*493 la_oenb[69]
*494 la_oenb[6]
*495 la_oenb[70]
*496 la_oenb[71]
*497 la_oenb[72]
*498 la_oenb[73]
*499 la_oenb[74]
*500 la_oenb[75]
*501 la_oenb[76]
*502 la_oenb[77]
*503 la_oenb[78]
*504 la_oenb[79]
*505 la_oenb[7]
*506 la_oenb[80]
*507 la_oenb[81]
*508 la_oenb[82]
*509 la_oenb[83]
*510 la_oenb[84]
*511 la_oenb[85]
*512 la_oenb[86]
*513 la_oenb[87]
*514 la_oenb[88]
*515 la_oenb[89]
*516 la_oenb[8]
*517 la_oenb[90]
*518 la_oenb[91]
*519 la_oenb[92]
*520 la_oenb[93]
*521 la_oenb[94]
*522 la_oenb[95]
*523 la_oenb[96]
*524 la_oenb[97]
*525 la_oenb[98]
*526 la_oenb[99]
*527 la_oenb[9]
*528 user_clock2
*529 user_irq[0]
*530 user_irq[1]
*531 user_irq[2]
*540 wb_clk_i
*541 wb_rst_i
*542 wbs_ack_o
*543 wbs_adr_i[0]
*544 wbs_adr_i[10]
*545 wbs_adr_i[11]
*546 wbs_adr_i[12]
*547 wbs_adr_i[13]
*548 wbs_adr_i[14]
*549 wbs_adr_i[15]
*550 wbs_adr_i[16]
*551 wbs_adr_i[17]
*552 wbs_adr_i[18]
*553 wbs_adr_i[19]
*554 wbs_adr_i[1]
*555 wbs_adr_i[20]
*556 wbs_adr_i[21]
*557 wbs_adr_i[22]
*558 wbs_adr_i[23]
*559 wbs_adr_i[24]
*560 wbs_adr_i[25]
*561 wbs_adr_i[26]
*562 wbs_adr_i[27]
*563 wbs_adr_i[28]
*564 wbs_adr_i[29]
*565 wbs_adr_i[2]
*566 wbs_adr_i[30]
*567 wbs_adr_i[31]
*568 wbs_adr_i[3]
*569 wbs_adr_i[4]
*570 wbs_adr_i[5]
*571 wbs_adr_i[6]
*572 wbs_adr_i[7]
*573 wbs_adr_i[8]
*574 wbs_adr_i[9]
*575 wbs_cyc_i
*576 wbs_dat_i[0]
*577 wbs_dat_i[10]
*578 wbs_dat_i[11]
*579 wbs_dat_i[12]
*580 wbs_dat_i[13]
*581 wbs_dat_i[14]
*582 wbs_dat_i[15]
*583 wbs_dat_i[16]
*584 wbs_dat_i[17]
*585 wbs_dat_i[18]
*586 wbs_dat_i[19]
*587 wbs_dat_i[1]
*588 wbs_dat_i[20]
*589 wbs_dat_i[21]
*590 wbs_dat_i[22]
*591 wbs_dat_i[23]
*592 wbs_dat_i[24]
*593 wbs_dat_i[25]
*594 wbs_dat_i[26]
*595 wbs_dat_i[27]
*596 wbs_dat_i[28]
*597 wbs_dat_i[29]
*598 wbs_dat_i[2]
*599 wbs_dat_i[30]
*600 wbs_dat_i[31]
*601 wbs_dat_i[3]
*602 wbs_dat_i[4]
*603 wbs_dat_i[5]
*604 wbs_dat_i[6]
*605 wbs_dat_i[7]
*606 wbs_dat_i[8]
*607 wbs_dat_i[9]
*608 wbs_dat_o[0]
*609 wbs_dat_o[10]
*610 wbs_dat_o[11]
*611 wbs_dat_o[12]
*612 wbs_dat_o[13]
*613 wbs_dat_o[14]
*614 wbs_dat_o[15]
*615 wbs_dat_o[16]
*616 wbs_dat_o[17]
*617 wbs_dat_o[18]
*618 wbs_dat_o[19]
*619 wbs_dat_o[1]
*620 wbs_dat_o[20]
*621 wbs_dat_o[21]
*622 wbs_dat_o[22]
*623 wbs_dat_o[23]
*624 wbs_dat_o[24]
*625 wbs_dat_o[25]
*626 wbs_dat_o[26]
*627 wbs_dat_o[27]
*628 wbs_dat_o[28]
*629 wbs_dat_o[29]
*630 wbs_dat_o[2]
*631 wbs_dat_o[30]
*632 wbs_dat_o[31]
*633 wbs_dat_o[3]
*634 wbs_dat_o[4]
*635 wbs_dat_o[5]
*636 wbs_dat_o[6]
*637 wbs_dat_o[7]
*638 wbs_dat_o[8]
*639 wbs_dat_o[9]
*640 wbs_sel_i[0]
*641 wbs_sel_i[1]
*642 wbs_sel_i[2]
*643 wbs_sel_i[3]
*644 wbs_stb_i
*645 wbs_we_i
*646 dffram_addr\[0\]
*647 dffram_addr\[1\]
*648 dffram_addr\[2\]
*649 dffram_addr\[3\]
*650 dffram_addr\[4\]
*651 dffram_addr\[5\]
*652 dffram_addr\[6\]
*653 dffram_addr\[7\]
*654 dffram_addr\[8\]
*655 dffram_en
*656 dffram_rdata\[0\]
*657 dffram_rdata\[10\]
*658 dffram_rdata\[11\]
*659 dffram_rdata\[12\]
*660 dffram_rdata\[13\]
*661 dffram_rdata\[14\]
*662 dffram_rdata\[15\]
*663 dffram_rdata\[16\]
*664 dffram_rdata\[17\]
*665 dffram_rdata\[18\]
*666 dffram_rdata\[19\]
*667 dffram_rdata\[1\]
*668 dffram_rdata\[20\]
*669 dffram_rdata\[21\]
*670 dffram_rdata\[22\]
*671 dffram_rdata\[23\]
*672 dffram_rdata\[24\]
*673 dffram_rdata\[25\]
*674 dffram_rdata\[26\]
*675 dffram_rdata\[27\]
*676 dffram_rdata\[28\]
*677 dffram_rdata\[29\]
*678 dffram_rdata\[2\]
*679 dffram_rdata\[30\]
*680 dffram_rdata\[31\]
*681 dffram_rdata\[3\]
*682 dffram_rdata\[4\]
*683 dffram_rdata\[5\]
*684 dffram_rdata\[6\]
*685 dffram_rdata\[7\]
*686 dffram_rdata\[8\]
*687 dffram_rdata\[9\]
*688 dffram_wdata\[0\]
*689 dffram_wdata\[10\]
*690 dffram_wdata\[11\]
*691 dffram_wdata\[12\]
*692 dffram_wdata\[13\]
*693 dffram_wdata\[14\]
*694 dffram_wdata\[15\]
*695 dffram_wdata\[16\]
*696 dffram_wdata\[17\]
*697 dffram_wdata\[18\]
*698 dffram_wdata\[19\]
*699 dffram_wdata\[1\]
*700 dffram_wdata\[20\]
*701 dffram_wdata\[21\]
*702 dffram_wdata\[22\]
*703 dffram_wdata\[23\]
*704 dffram_wdata\[24\]
*705 dffram_wdata\[25\]
*706 dffram_wdata\[26\]
*707 dffram_wdata\[27\]
*708 dffram_wdata\[28\]
*709 dffram_wdata\[29\]
*710 dffram_wdata\[2\]
*711 dffram_wdata\[30\]
*712 dffram_wdata\[31\]
*713 dffram_wdata\[3\]
*714 dffram_wdata\[4\]
*715 dffram_wdata\[5\]
*716 dffram_wdata\[6\]
*717 dffram_wdata\[7\]
*718 dffram_wdata\[8\]
*719 dffram_wdata\[9\]
*720 dffram_we\[0\]
*721 dffram_we\[1\]
*722 dffram_we\[2\]
*723 dffram_we\[3\]
*724 mem_addr\[0\]
*725 mem_addr\[1\]
*726 mem_addr\[2\]
*727 mem_addr\[3\]
*728 mem_addr\[4\]
*729 mem_addr\[5\]
*730 mem_addr\[6\]
*731 mem_addr\[7\]
*732 mem_addr\[8\]
*733 mem_en
*734 mem_rdata\[0\]
*735 mem_rdata\[10\]
*736 mem_rdata\[11\]
*737 mem_rdata\[12\]
*738 mem_rdata\[13\]
*739 mem_rdata\[14\]
*740 mem_rdata\[15\]
*741 mem_rdata\[16\]
*742 mem_rdata\[17\]
*743 mem_rdata\[18\]
*744 mem_rdata\[19\]
*745 mem_rdata\[1\]
*746 mem_rdata\[20\]
*747 mem_rdata\[21\]
*748 mem_rdata\[22\]
*749 mem_rdata\[23\]
*750 mem_rdata\[24\]
*751 mem_rdata\[25\]
*752 mem_rdata\[26\]
*753 mem_rdata\[27\]
*754 mem_rdata\[28\]
*755 mem_rdata\[29\]
*756 mem_rdata\[2\]
*757 mem_rdata\[30\]
*758 mem_rdata\[31\]
*759 mem_rdata\[3\]
*760 mem_rdata\[4\]
*761 mem_rdata\[5\]
*762 mem_rdata\[6\]
*763 mem_rdata\[7\]
*764 mem_rdata\[8\]
*765 mem_rdata\[9\]
*766 mem_wdata\[0\]
*767 mem_wdata\[10\]
*768 mem_wdata\[11\]
*769 mem_wdata\[12\]
*770 mem_wdata\[13\]
*771 mem_wdata\[14\]
*772 mem_wdata\[15\]
*773 mem_wdata\[16\]
*774 mem_wdata\[17\]
*775 mem_wdata\[18\]
*776 mem_wdata\[19\]
*777 mem_wdata\[1\]
*778 mem_wdata\[20\]
*779 mem_wdata\[21\]
*780 mem_wdata\[22\]
*781 mem_wdata\[23\]
*782 mem_wdata\[24\]
*783 mem_wdata\[25\]
*784 mem_wdata\[26\]
*785 mem_wdata\[27\]
*786 mem_wdata\[28\]
*787 mem_wdata\[29\]
*788 mem_wdata\[2\]
*789 mem_wdata\[30\]
*790 mem_wdata\[31\]
*791 mem_wdata\[3\]
*792 mem_wdata\[4\]
*793 mem_wdata\[5\]
*794 mem_wdata\[6\]
*795 mem_wdata\[7\]
*796 mem_wdata\[8\]
*797 mem_wdata\[9\]
*798 mem_we\[0\]
*799 mem_we\[1\]
*800 mem_we\[2\]
*801 mem_we\[3\]
*802 u_dffram
*803 u_memory_arb
*804 u_soc

*PORTS
analog_io[0] I
analog_io[10] I
analog_io[11] I
analog_io[12] I
analog_io[13] I
analog_io[14] I
analog_io[15] I
analog_io[16] I
analog_io[17] I
analog_io[18] I
analog_io[19] I
analog_io[1] I
analog_io[20] I
analog_io[21] I
analog_io[22] I
analog_io[23] I
analog_io[24] I
analog_io[25] I
analog_io[26] I
analog_io[27] I
analog_io[28] I
analog_io[2] I
analog_io[3] I
analog_io[4] I
analog_io[5] I
analog_io[6] I
analog_io[7] I
analog_io[8] I
analog_io[9] I
io_in[0] I
io_in[10] I
io_in[11] I
io_in[12] I
io_in[13] I
io_in[14] I
io_in[15] I
io_in[16] I
io_in[17] I
io_in[18] I
io_in[19] I
io_in[1] I
io_in[20] I
io_in[21] I
io_in[22] I
io_in[23] I
io_in[24] I
io_in[25] I
io_in[26] I
io_in[27] I
io_in[28] I
io_in[29] I
io_in[2] I
io_in[30] I
io_in[31] I
io_in[32] I
io_in[33] I
io_in[34] I
io_in[35] I
io_in[36] I
io_in[37] I
io_in[3] I
io_in[4] I
io_in[5] I
io_in[6] I
io_in[7] I
io_in[8] I
io_in[9] I
io_oeb[0] O
io_oeb[10] O
io_oeb[11] O
io_oeb[12] O
io_oeb[13] O
io_oeb[14] O
io_oeb[15] O
io_oeb[16] O
io_oeb[17] O
io_oeb[18] O
io_oeb[19] O
io_oeb[1] O
io_oeb[20] O
io_oeb[21] O
io_oeb[22] O
io_oeb[23] O
io_oeb[24] O
io_oeb[25] O
io_oeb[26] O
io_oeb[27] O
io_oeb[28] O
io_oeb[29] O
io_oeb[2] O
io_oeb[30] O
io_oeb[31] O
io_oeb[32] O
io_oeb[33] O
io_oeb[34] O
io_oeb[35] O
io_oeb[36] O
io_oeb[37] O
io_oeb[3] O
io_oeb[4] O
io_oeb[5] O
io_oeb[6] O
io_oeb[7] O
io_oeb[8] O
io_oeb[9] O
io_out[0] O
io_out[10] O
io_out[11] O
io_out[12] O
io_out[13] O
io_out[14] O
io_out[15] O
io_out[16] O
io_out[17] O
io_out[18] O
io_out[19] O
io_out[1] O
io_out[20] O
io_out[21] O
io_out[22] O
io_out[23] O
io_out[24] O
io_out[25] O
io_out[26] O
io_out[27] O
io_out[28] O
io_out[29] O
io_out[2] O
io_out[30] O
io_out[31] O
io_out[32] O
io_out[33] O
io_out[34] O
io_out[35] O
io_out[36] O
io_out[37] O
io_out[3] O
io_out[4] O
io_out[5] O
io_out[6] O
io_out[7] O
io_out[8] O
io_out[9] O
la_data_in[0] I
la_data_in[100] I
la_data_in[101] I
la_data_in[102] I
la_data_in[103] I
la_data_in[104] I
la_data_in[105] I
la_data_in[106] I
la_data_in[107] I
la_data_in[108] I
la_data_in[109] I
la_data_in[10] I
la_data_in[110] I
la_data_in[111] I
la_data_in[112] I
la_data_in[113] I
la_data_in[114] I
la_data_in[115] I
la_data_in[116] I
la_data_in[117] I
la_data_in[118] I
la_data_in[119] I
la_data_in[11] I
la_data_in[120] I
la_data_in[121] I
la_data_in[122] I
la_data_in[123] I
la_data_in[124] I
la_data_in[125] I
la_data_in[126] I
la_data_in[127] I
la_data_in[12] I
la_data_in[13] I
la_data_in[14] I
la_data_in[15] I
la_data_in[16] I
la_data_in[17] I
la_data_in[18] I
la_data_in[19] I
la_data_in[1] I
la_data_in[20] I
la_data_in[21] I
la_data_in[22] I
la_data_in[23] I
la_data_in[24] I
la_data_in[25] I
la_data_in[26] I
la_data_in[27] I
la_data_in[28] I
la_data_in[29] I
la_data_in[2] I
la_data_in[30] I
la_data_in[31] I
la_data_in[32] I
la_data_in[33] I
la_data_in[34] I
la_data_in[35] I
la_data_in[36] I
la_data_in[37] I
la_data_in[38] I
la_data_in[39] I
la_data_in[3] I
la_data_in[40] I
la_data_in[41] I
la_data_in[42] I
la_data_in[43] I
la_data_in[44] I
la_data_in[45] I
la_data_in[46] I
la_data_in[47] I
la_data_in[48] I
la_data_in[49] I
la_data_in[4] I
la_data_in[50] I
la_data_in[51] I
la_data_in[52] I
la_data_in[53] I
la_data_in[54] I
la_data_in[55] I
la_data_in[56] I
la_data_in[57] I
la_data_in[58] I
la_data_in[59] I
la_data_in[5] I
la_data_in[60] I
la_data_in[61] I
la_data_in[62] I
la_data_in[63] I
la_data_in[64] I
la_data_in[65] I
la_data_in[66] I
la_data_in[67] I
la_data_in[68] I
la_data_in[69] I
la_data_in[6] I
la_data_in[70] I
la_data_in[71] I
la_data_in[72] I
la_data_in[73] I
la_data_in[74] I
la_data_in[75] I
la_data_in[76] I
la_data_in[77] I
la_data_in[78] I
la_data_in[79] I
la_data_in[7] I
la_data_in[80] I
la_data_in[81] I
la_data_in[82] I
la_data_in[83] I
la_data_in[84] I
la_data_in[85] I
la_data_in[86] I
la_data_in[87] I
la_data_in[88] I
la_data_in[89] I
la_data_in[8] I
la_data_in[90] I
la_data_in[91] I
la_data_in[92] I
la_data_in[93] I
la_data_in[94] I
la_data_in[95] I
la_data_in[96] I
la_data_in[97] I
la_data_in[98] I
la_data_in[99] I
la_data_in[9] I
la_data_out[0] O
la_data_out[100] O
la_data_out[101] O
la_data_out[102] O
la_data_out[103] O
la_data_out[104] O
la_data_out[105] O
la_data_out[106] O
la_data_out[107] O
la_data_out[108] O
la_data_out[109] O
la_data_out[10] O
la_data_out[110] O
la_data_out[111] O
la_data_out[112] O
la_data_out[113] O
la_data_out[114] O
la_data_out[115] O
la_data_out[116] O
la_data_out[117] O
la_data_out[118] O
la_data_out[119] O
la_data_out[11] O
la_data_out[120] O
la_data_out[121] O
la_data_out[122] O
la_data_out[123] O
la_data_out[124] O
la_data_out[125] O
la_data_out[126] O
la_data_out[127] O
la_data_out[12] O
la_data_out[13] O
la_data_out[14] O
la_data_out[15] O
la_data_out[16] O
la_data_out[17] O
la_data_out[18] O
la_data_out[19] O
la_data_out[1] O
la_data_out[20] O
la_data_out[21] O
la_data_out[22] O
la_data_out[23] O
la_data_out[24] O
la_data_out[25] O
la_data_out[26] O
la_data_out[27] O
la_data_out[28] O
la_data_out[29] O
la_data_out[2] O
la_data_out[30] O
la_data_out[31] O
la_data_out[32] O
la_data_out[33] O
la_data_out[34] O
la_data_out[35] O
la_data_out[36] O
la_data_out[37] O
la_data_out[38] O
la_data_out[39] O
la_data_out[3] O
la_data_out[40] O
la_data_out[41] O
la_data_out[42] O
la_data_out[43] O
la_data_out[44] O
la_data_out[45] O
la_data_out[46] O
la_data_out[47] O
la_data_out[48] O
la_data_out[49] O
la_data_out[4] O
la_data_out[50] O
la_data_out[51] O
la_data_out[52] O
la_data_out[53] O
la_data_out[54] O
la_data_out[55] O
la_data_out[56] O
la_data_out[57] O
la_data_out[58] O
la_data_out[59] O
la_data_out[5] O
la_data_out[60] O
la_data_out[61] O
la_data_out[62] O
la_data_out[63] O
la_data_out[64] O
la_data_out[65] O
la_data_out[66] O
la_data_out[67] O
la_data_out[68] O
la_data_out[69] O
la_data_out[6] O
la_data_out[70] O
la_data_out[71] O
la_data_out[72] O
la_data_out[73] O
la_data_out[74] O
la_data_out[75] O
la_data_out[76] O
la_data_out[77] O
la_data_out[78] O
la_data_out[79] O
la_data_out[7] O
la_data_out[80] O
la_data_out[81] O
la_data_out[82] O
la_data_out[83] O
la_data_out[84] O
la_data_out[85] O
la_data_out[86] O
la_data_out[87] O
la_data_out[88] O
la_data_out[89] O
la_data_out[8] O
la_data_out[90] O
la_data_out[91] O
la_data_out[92] O
la_data_out[93] O
la_data_out[94] O
la_data_out[95] O
la_data_out[96] O
la_data_out[97] O
la_data_out[98] O
la_data_out[99] O
la_data_out[9] O
la_oenb[0] I
la_oenb[100] I
la_oenb[101] I
la_oenb[102] I
la_oenb[103] I
la_oenb[104] I
la_oenb[105] I
la_oenb[106] I
la_oenb[107] I
la_oenb[108] I
la_oenb[109] I
la_oenb[10] I
la_oenb[110] I
la_oenb[111] I
la_oenb[112] I
la_oenb[113] I
la_oenb[114] I
la_oenb[115] I
la_oenb[116] I
la_oenb[117] I
la_oenb[118] I
la_oenb[119] I
la_oenb[11] I
la_oenb[120] I
la_oenb[121] I
la_oenb[122] I
la_oenb[123] I
la_oenb[124] I
la_oenb[125] I
la_oenb[126] I
la_oenb[127] I
la_oenb[12] I
la_oenb[13] I
la_oenb[14] I
la_oenb[15] I
la_oenb[16] I
la_oenb[17] I
la_oenb[18] I
la_oenb[19] I
la_oenb[1] I
la_oenb[20] I
la_oenb[21] I
la_oenb[22] I
la_oenb[23] I
la_oenb[24] I
la_oenb[25] I
la_oenb[26] I
la_oenb[27] I
la_oenb[28] I
la_oenb[29] I
la_oenb[2] I
la_oenb[30] I
la_oenb[31] I
la_oenb[32] I
la_oenb[33] I
la_oenb[34] I
la_oenb[35] I
la_oenb[36] I
la_oenb[37] I
la_oenb[38] I
la_oenb[39] I
la_oenb[3] I
la_oenb[40] I
la_oenb[41] I
la_oenb[42] I
la_oenb[43] I
la_oenb[44] I
la_oenb[45] I
la_oenb[46] I
la_oenb[47] I
la_oenb[48] I
la_oenb[49] I
la_oenb[4] I
la_oenb[50] I
la_oenb[51] I
la_oenb[52] I
la_oenb[53] I
la_oenb[54] I
la_oenb[55] I
la_oenb[56] I
la_oenb[57] I
la_oenb[58] I
la_oenb[59] I
la_oenb[5] I
la_oenb[60] I
la_oenb[61] I
la_oenb[62] I
la_oenb[63] I
la_oenb[64] I
la_oenb[65] I
la_oenb[66] I
la_oenb[67] I
la_oenb[68] I
la_oenb[69] I
la_oenb[6] I
la_oenb[70] I
la_oenb[71] I
la_oenb[72] I
la_oenb[73] I
la_oenb[74] I
la_oenb[75] I
la_oenb[76] I
la_oenb[77] I
la_oenb[78] I
la_oenb[79] I
la_oenb[7] I
la_oenb[80] I
la_oenb[81] I
la_oenb[82] I
la_oenb[83] I
la_oenb[84] I
la_oenb[85] I
la_oenb[86] I
la_oenb[87] I
la_oenb[88] I
la_oenb[89] I
la_oenb[8] I
la_oenb[90] I
la_oenb[91] I
la_oenb[92] I
la_oenb[93] I
la_oenb[94] I
la_oenb[95] I
la_oenb[96] I
la_oenb[97] I
la_oenb[98] I
la_oenb[99] I
la_oenb[9] I
user_clock2 I
user_irq[0] O
user_irq[1] O
user_irq[2] O
wb_clk_i I
wb_rst_i I
wbs_ack_o O
wbs_adr_i[0] I
wbs_adr_i[10] I
wbs_adr_i[11] I
wbs_adr_i[12] I
wbs_adr_i[13] I
wbs_adr_i[14] I
wbs_adr_i[15] I
wbs_adr_i[16] I
wbs_adr_i[17] I
wbs_adr_i[18] I
wbs_adr_i[19] I
wbs_adr_i[1] I
wbs_adr_i[20] I
wbs_adr_i[21] I
wbs_adr_i[22] I
wbs_adr_i[23] I
wbs_adr_i[24] I
wbs_adr_i[25] I
wbs_adr_i[26] I
wbs_adr_i[27] I
wbs_adr_i[28] I
wbs_adr_i[29] I
wbs_adr_i[2] I
wbs_adr_i[30] I
wbs_adr_i[31] I
wbs_adr_i[3] I
wbs_adr_i[4] I
wbs_adr_i[5] I
wbs_adr_i[6] I
wbs_adr_i[7] I
wbs_adr_i[8] I
wbs_adr_i[9] I
wbs_cyc_i I
wbs_dat_i[0] I
wbs_dat_i[10] I
wbs_dat_i[11] I
wbs_dat_i[12] I
wbs_dat_i[13] I
wbs_dat_i[14] I
wbs_dat_i[15] I
wbs_dat_i[16] I
wbs_dat_i[17] I
wbs_dat_i[18] I
wbs_dat_i[19] I
wbs_dat_i[1] I
wbs_dat_i[20] I
wbs_dat_i[21] I
wbs_dat_i[22] I
wbs_dat_i[23] I
wbs_dat_i[24] I
wbs_dat_i[25] I
wbs_dat_i[26] I
wbs_dat_i[27] I
wbs_dat_i[28] I
wbs_dat_i[29] I
wbs_dat_i[2] I
wbs_dat_i[30] I
wbs_dat_i[31] I
wbs_dat_i[3] I
wbs_dat_i[4] I
wbs_dat_i[5] I
wbs_dat_i[6] I
wbs_dat_i[7] I
wbs_dat_i[8] I
wbs_dat_i[9] I
wbs_dat_o[0] O
wbs_dat_o[10] O
wbs_dat_o[11] O
wbs_dat_o[12] O
wbs_dat_o[13] O
wbs_dat_o[14] O
wbs_dat_o[15] O
wbs_dat_o[16] O
wbs_dat_o[17] O
wbs_dat_o[18] O
wbs_dat_o[19] O
wbs_dat_o[1] O
wbs_dat_o[20] O
wbs_dat_o[21] O
wbs_dat_o[22] O
wbs_dat_o[23] O
wbs_dat_o[24] O
wbs_dat_o[25] O
wbs_dat_o[26] O
wbs_dat_o[27] O
wbs_dat_o[28] O
wbs_dat_o[29] O
wbs_dat_o[2] O
wbs_dat_o[30] O
wbs_dat_o[31] O
wbs_dat_o[3] O
wbs_dat_o[4] O
wbs_dat_o[5] O
wbs_dat_o[6] O
wbs_dat_o[7] O
wbs_dat_o[8] O
wbs_dat_o[9] O
wbs_sel_i[0] I
wbs_sel_i[1] I
wbs_sel_i[2] I
wbs_sel_i[3] I
wbs_stb_i I
wbs_we_i I

*D_NET *30 0.257266
*CONN
*P io_in[0] I
*I *804:io_in[0] I *D picorv32_soc
*CAP
1 io_in[0] 0.00900024
2 *804:io_in[0] 0.00905765
3 *30:17 0.113105
4 *30:15 0.113048
5 *30:15 io_out[0] 0.0130543
6 *30:17 *678:14 0
7 *30:17 *714:9 0
8 *30:17 *721:11 0
*RES
1 io_in[0] *30:15 44.7725 
2 *30:15 *30:17 312.672 
3 *30:17 *804:io_in[0] 33.6304 
*END

*D_NET *31 0.380075
*CONN
*P io_in[10] I
*I *804:io_in[10] I *D picorv32_soc
*CAP
1 io_in[10] 0.111237
2 *804:io_in[10] 0.00236697
3 *31:9 0.0788003
4 *31:7 0.0764333
5 *31:5 0.111237
6 *31:9 *35:9 0
*RES
1 io_in[10] *31:5 316.108 
2 *31:5 *31:7 3.41 
3 *31:7 *31:9 241.771 
4 *31:9 *804:io_in[10] 9.77537 
*END

*D_NET *32 0.401607
*CONN
*P io_in[11] I
*I *804:io_in[11] I *D picorv32_soc
*CAP
1 io_in[11] 0.101606
2 *804:io_in[11] 0.0116596
3 *32:9 0.0983959
4 *32:7 0.0867362
5 *32:5 0.101606
6 *32:9 *33:9 0
7 *32:9 *103:9 0
8 *32:9 *141:9 0
9 *32:9 *787:18 0.00160291
*RES
1 io_in[11] *32:5 289.155 
2 *32:5 *32:7 3.41 
3 *32:7 *32:9 277.673 
4 *32:9 *804:io_in[11] 36.7283 
*END

*D_NET *33 0.451235
*CONN
*P io_in[12] I
*I *804:io_in[12] I *D picorv32_soc
*CAP
1 io_in[12] 0.0950082
2 *804:io_in[12] 0.0121817
3 *33:9 0.0983539
4 *33:7 0.0861722
5 *33:5 0.0950082
6 *33:9 *141:9 0.055291
7 *33:9 *755:13 0.00249808
8 *33:9 *757:13 0.00432886
9 *33:9 *780:13 0.00239259
10 *32:9 *33:9 0
*RES
1 io_in[12] *33:5 288.002 
2 *33:5 *33:7 3.41 
3 *33:7 *33:9 313.362 
4 *33:9 *804:io_in[12] 38.0349 
*END

*D_NET *34 0.453799
*CONN
*P io_in[13] I
*I *804:io_in[13] I *D picorv32_soc
*CAP
1 io_in[13] 0.104972
2 *804:io_in[13] 0.00173463
3 *34:9 0.102954
4 *34:7 0.101219
5 *34:5 0.104972
6 *34:9 *35:9 0
7 *34:9 *73:9 0
8 *34:9 *140:9 0.0379466
*RES
1 io_in[13] *34:5 318.27 
2 *34:5 *34:7 3.41 
3 *34:7 *34:9 349.37 
4 *34:9 *804:io_in[13] 7.61337 
*END

*D_NET *35 0.457725
*CONN
*P io_in[14] I
*I *804:io_in[14] I *D picorv32_soc
*CAP
1 io_in[14] 0.104596
2 *804:io_in[14] 0.00209679
3 *35:9 0.123257
4 *35:7 0.12116
5 *35:5 0.104596
6 *35:9 *803:cpu_mem_wdata[15] 0.00201927
7 *35:9 *140:9 0
8 *31:9 *35:9 0
9 *34:9 *35:9 0
*RES
1 io_in[14] *35:5 317.261 
2 *35:5 *35:7 3.41 
3 *35:7 *35:9 385.272 
4 *35:9 *804:io_in[14] 8.6223 
*END

*D_NET *36 0.673354
*CONN
*P io_in[15] I
*I *804:io_in[15] I *D picorv32_soc
*CAP
1 io_in[15] 0.000189803
2 *804:io_in[15] 2.0976e-05
3 *36:21 0.021468
4 *36:19 0.17082
5 *36:13 0.25744
6 *36:11 0.108257
7 *804:io_in[15] *759:17 0
8 *804:io_in[15] *799:19 4.98422e-05
9 *36:19 *661:11 0.0165382
10 *36:19 *662:11 0.0153398
11 *36:19 *663:11 0.0149148
12 *36:19 *665:11 0.014218
13 *36:19 *666:11 0.0152098
14 *36:19 *669:11 0.0178934
15 *36:19 *671:11 0.00660775
16 *36:19 *672:11 0.0065696
17 *36:19 *673:11 0.00781746
18 *36:21 *112:10 0
*RES
1 io_in[15] *36:11 9.46617 
2 *36:11 *36:13 335.307 
3 *36:13 *36:19 43.2321 
4 *36:19 *36:21 66.9499 
5 *36:21 *804:io_in[15] 6.90303 
*END

*D_NET *37 0.48551
*CONN
*P io_in[16] I
*I *804:io_in[16] I *D picorv32_soc
*CAP
1 io_in[16] 0.0926826
2 *804:io_in[16] 0.0188576
3 *37:11 0.0188576
4 *37:9 0.0933499
5 *37:7 0.0933499
6 *37:5 0.0926826
7 *37:9 *38:9 0
8 *37:9 *665:11 0
9 *37:9 *668:11 0.0722174
10 *37:9 *670:11 0.00351211
*RES
1 io_in[16] *37:5 1905.88 
2 *37:5 *37:7 3.41 
3 *37:7 *37:9 325.068 
4 *37:9 *37:11 3.41 
5 *37:11 *804:io_in[16] 387.42 
*END

*D_NET *38 0.412747
*CONN
*P io_in[17] I
*I *804:io_in[17] I *D picorv32_soc
*CAP
1 io_in[17] 0.0924104
2 *804:io_in[17] 0.0191469
3 *38:11 0.0191469
4 *38:9 0.0948163
5 *38:7 0.0948163
6 *38:5 0.0924104
7 *38:9 *39:17 0
8 *37:9 *38:9 0
*RES
1 io_in[17] *38:5 1899.81 
2 *38:5 *38:7 3.41 
3 *38:7 *38:9 276.783 
4 *38:9 *38:11 3.41 
5 *38:11 *804:io_in[17] 393.491 
*END

*D_NET *39 0.380375
*CONN
*P io_in[18] I
*I *804:io_in[18] I *D picorv32_soc
*CAP
1 io_in[18] 0.000472584
2 *804:io_in[18] 0.0194431
3 *39:19 0.0194431
4 *39:17 0.0780194
5 *39:15 0.0780194
6 *39:13 0.0918867
7 *39:11 0.0923592
8 *39:11 *113:9 0.000731224
9 *39:17 *40:9 0
10 *38:9 *39:17 0
*RES
1 io_in[18] *39:11 12.8676 
2 *39:11 *39:13 1888.95 
3 *39:13 *39:15 3.41 
4 *39:15 *39:17 227.489 
5 *39:17 *39:19 3.41 
6 *39:19 *804:io_in[18] 399.562 
*END

*D_NET *40 0.343385
*CONN
*P io_in[19] I
*I *804:io_in[19] I *D picorv32_soc
*CAP
1 io_in[19] 0.0918505
2 *804:io_in[19] 0.0197402
3 *40:11 0.0197402
4 *40:9 0.060102
5 *40:7 0.060102
6 *40:5 0.0918505
7 *40:9 *42:9 0
8 *39:17 *40:9 0
*RES
1 io_in[19] *40:5 1887.67 
2 *40:5 *40:7 3.41 
3 *40:7 *40:9 180.358 
4 *40:9 *40:11 3.41 
5 *40:11 *804:io_in[19] 405.634 
*END

*D_NET *41 0.379172
*CONN
*P io_in[1] I
*I *804:io_in[1] I *D picorv32_soc
*CAP
1 io_in[1] 0.0640067
2 *804:io_in[1] 0.00526462
3 *41:11 0.0146439
4 *41:5 0.073386
5 *41:5 *531:14 0.191222
6 *41:5 *655:11 0
7 *41:5 *722:9 0.0306489
*RES
1 io_in[1] *41:5 307.46 
2 *41:5 *41:11 35.9506 
3 *41:11 *804:io_in[1] 15.0134 
*END

*D_NET *42 0.314401
*CONN
*P io_in[20] I
*I *804:io_in[20] I *D picorv32_soc
*CAP
1 io_in[20] 0.0915792
2 *804:io_in[20] 0.0200295
3 *42:11 0.0200295
4 *42:9 0.0455921
5 *42:7 0.0455921
6 *42:5 0.0915792
7 *42:9 *74:9 0
8 *40:9 *42:9 0
*RES
1 io_in[20] *42:5 1881.6 
2 *42:5 *42:7 3.41 
3 *42:7 *42:9 132.073 
4 *42:9 *42:11 3.41 
5 *42:11 *804:io_in[20] 411.705 
*END

*D_NET *43 0.302639
*CONN
*P io_in[21] I
*I *804:io_in[21] I *D picorv32_soc
*CAP
1 io_in[21] 0.110677
2 *804:io_in[21] 0.000490559
3 *43:19 0.00579877
4 *43:9 0.0216353
5 *43:7 0.0163271
6 *43:5 0.110677
7 *43:5 *797:13 0.000213941
8 *43:9 *804:mem_rdata[24] 0.00426088
9 *43:9 *747:19 0.00348398
10 *43:9 *777:9 0
11 *43:9 *793:9 0
12 *43:19 *804:mem_rdata[24] 0.000388662
13 *43:19 *804:mem_rdata[31] 0.00769219
14 *43:19 *766:25 0.00226707
15 *43:19 *777:17 0.0187262
*RES
1 io_in[21] *43:5 2278.82 
2 *43:5 *43:7 4.5 
3 *43:7 *43:9 310.625 
4 *43:9 *43:19 46.1356 
5 *43:19 *804:io_in[21] 9.16964 
*END

*D_NET *44 0.249879
*CONN
*P io_in[22] I
*I *804:io_in[22] I *D picorv32_soc
*CAP
1 io_in[22] 0.111216
2 *804:io_in[22] 0.0113056
3 *44:5 0.122522
4 *804:io_in[22] *804:mem_rdata[28] 0.00214958
5 *804:io_in[22] *804:mem_rdata[30] 0.000476831
6 *804:io_in[22] *777:17 0
7 *804:io_in[22] *798:19 0.00195177
8 *44:5 *804:mem_rdata[22] 0.000257567
9 *44:5 *804:mem_rdata[29] 0
10 *44:5 *779:7 0
*RES
1 io_in[22] *44:5 2288.38 
2 *44:5 *804:io_in[22] 47.3876 
*END

*D_NET *45 0.238666
*CONN
*P io_in[23] I
*I *804:io_in[23] I *D picorv32_soc
*CAP
1 io_in[23] 0.111404
2 *804:io_in[23] 0.00238067
3 *45:5 0.113785
4 *804:io_in[23] *83:8 0.00696288
5 *804:io_in[23] *129:25 0
6 *804:io_in[23] *726:25 0.000653347
7 *804:io_in[23] *727:16 0.000427123
8 *804:io_in[23] *799:25 0.00305252
*RES
1 io_in[23] *45:5 2295.06 
2 *45:5 *804:io_in[23] 19.5507 
*END

*D_NET *46 0.298171
*CONN
*P io_in[24] I
*I *804:io_in[24] I *D picorv32_soc
*CAP
1 io_in[24] 0.013134
2 *804:io_in[24] 0.000618117
3 *46:15 0.109866
4 *46:13 0.122382
5 *46:15 *126:19 0.00639374
6 *46:15 *127:9 0.0449049
7 *46:15 *745:10 0.000427556
8 *46:15 *798:23 0.000445008
*RES
1 io_in[24] *46:13 42.9918 
2 *46:13 *46:15 390.598 
3 *46:15 *804:io_in[24] 4.87483 
*END

*D_NET *47 0.252253
*CONN
*P io_in[25] I
*I *804:io_in[25] I *D picorv32_soc
*CAP
1 io_in[25] 0.00092617
2 *804:io_in[25] 0.0133246
3 *47:11 0.1252
4 *47:9 0.112802
*RES
1 io_in[25] *47:9 6.0373 
2 *47:9 *47:11 356.188 
3 *47:11 *804:io_in[25] 41.6288 
*END

*D_NET *48 0.231574
*CONN
*P io_in[26] I
*I *804:io_in[26] I *D picorv32_soc
*CAP
1 io_in[26] 0.00645917
2 *804:io_in[26] 0.00847491
3 *48:15 0.109328
4 *48:13 0.107312
*RES
1 io_in[26] *48:13 21.3718 
2 *48:13 *48:15 321.671 
3 *48:15 *804:io_in[26] 26.4948 
*END

*D_NET *49 0.209377
*CONN
*P io_in[27] I
*I *804:io_in[27] I *D picorv32_soc
*CAP
1 io_in[27] 0.00863707
2 *804:io_in[27] 0.00574376
3 *49:15 0.0953991
4 *49:13 0.0982924
5 *49:15 *85:9 0
6 *49:15 *91:9 0
7 *49:15 *766:27 0.001305
*RES
1 io_in[27] *49:13 28.8668 
2 *49:13 *49:15 287.261 
3 *49:15 *804:io_in[27] 18.9999 
*END

*D_NET *50 0.186629
*CONN
*P io_in[28] I
*I *804:io_in[28] I *D picorv32_soc
*CAP
1 io_in[28] 0.00419372
2 *804:io_in[28] 0.00981433
3 *50:11 0.0891207
4 *50:9 0.0835001
5 *50:11 *54:11 0
6 *50:11 *124:9 0
*RES
1 io_in[28] *50:9 15.6942 
2 *50:9 *50:11 252.638 
3 *50:11 *804:io_in[28] 31.9719 
*END

*D_NET *51 0.165101
*CONN
*P io_in[29] I
*I *804:io_in[29] I *D picorv32_soc
*CAP
1 io_in[29] 0.0031225
2 *804:io_in[29] 0.0108602
3 *51:11 0.0794282
4 *51:9 0.0716905
*RES
1 io_in[29] *51:9 12.5233 
2 *51:9 *51:11 218.227 
3 *51:11 *804:io_in[29] 35.1428 
*END

*D_NET *52 0.477412
*CONN
*P io_in[2] I
*I *804:io_in[2] I *D picorv32_soc
*CAP
1 io_in[2] 0.00232838
2 *804:io_in[2] 0.0131374
3 *52:27 0.0165684
4 *52:21 0.0287304
5 *52:19 0.0276277
6 *52:19 io_oeb[2] 0.000920301
7 *52:19 *62:13 0.000377236
8 *52:19 *62:25 0.00237952
9 *52:19 *63:9 0.000856331
10 *52:19 *99:23 0.0018018
11 *52:19 *100:23 0.000776791
12 *52:19 *138:27 0.000801216
13 *52:19 *139:33 0.000596758
14 *52:21 *63:13 0.182776
15 *52:21 *90:13 0.1826
16 *52:21 *651:16 0.00426052
17 *52:27 *803:cpu_mem_wdata[21] 0.00170255
18 *52:27 *90:11 0.00707931
19 *52:27 *681:13 0.00104585
20 *52:27 *683:15 0.00104585
*RES
1 io_in[2] *52:19 18.91 
2 *52:19 *52:21 284.566 
3 *52:21 *52:27 21.8882 
4 *52:27 *804:io_in[2] 37.7864 
*END

*D_NET *53 0.144441
*CONN
*P io_in[30] I
*I *804:io_in[30] I *D picorv32_soc
*CAP
1 io_in[30] 0.00694732
2 *804:io_in[30] 0.00751607
3 *53:15 0.0652729
4 *53:13 0.0647042
5 *53:15 *86:9 0
*RES
1 io_in[30] *53:13 23.5338 
2 *53:13 *53:15 183.817 
3 *53:15 *804:io_in[30] 24.3328 
*END

*D_NET *54 0.15322
*CONN
*P io_in[31] I
*I *804:io_in[31] I *D picorv32_soc
*CAP
1 io_in[31] 0.00397835
2 *804:io_in[31] 0.00992074
3 *54:11 0.0440385
4 *54:9 0.0380961
5 *54:11 *124:9 0.0571868
6 *50:11 *54:11 0
*RES
1 io_in[31] *54:9 14.8294 
2 *54:9 *54:11 149.3 
3 *54:11 *804:io_in[31] 32.8367 
*END

*D_NET *55 0.120194
*CONN
*P io_in[32] I
*I *804:io_in[32] I *D picorv32_soc
*CAP
1 io_in[32] 0.00544572
2 *804:io_in[32] 0.00882417
3 *55:15 0.037322
4 *55:13 0.0339436
5 *55:15 *123:9 0.0346584
*RES
1 io_in[32] *55:13 18.2009 
2 *55:13 *55:15 114.996 
3 *55:15 *804:io_in[32] 29.6658 
*END

*D_NET *56 0.0858165
*CONN
*P io_in[33] I
*I *804:io_in[33] I *D picorv32_soc
*CAP
1 io_in[33] 0.00823048
2 *804:io_in[33] 0.00586911
3 *56:15 0.0286932
4 *56:13 0.0310546
5 *56:15 *91:9 0
6 *56:15 *122:9 0.011969
7 *56:15 *766:27 0
*RES
1 io_in[33] *56:13 26.8489 
2 *56:13 *56:15 80.4797 
3 *56:15 *804:io_in[33] 21.0178 
*END

*D_NET *57 0.0565216
*CONN
*P io_in[34] I
*I *804:io_in[34] I *D picorv32_soc
*CAP
1 io_in[34] 0.000976906
2 *804:io_in[34] 0.0127941
3 *57:13 0.0272839
4 *57:9 0.0154667
*RES
1 io_in[34] *57:9 6.0373 
2 *57:9 *57:13 49.5859 
3 *57:13 *804:io_in[34] 38.2188 
*END

*D_NET *58 0.0345673
*CONN
*P io_in[35] I
*I *804:io_in[35] I *D picorv32_soc
*CAP
1 io_in[35] 0.00774619
2 *804:io_in[35] 0.00953748
3 *58:13 0.0172837
4 *58:13 *132:7 0
*RES
1 io_in[35] *58:13 30.5503 
2 *58:13 *804:io_in[35] 28.5619 
*END

*D_NET *59 0.035457
*CONN
*P io_in[36] I
*I *804:io_in[36] I *D picorv32_soc
*CAP
1 io_in[36] 0.00498512
2 *804:io_in[36] 0.0127434
3 *59:13 0.0177285
*RES
1 io_in[36] *59:13 22.0652 
2 *59:13 *804:io_in[36] 38.2188 
*END

*D_NET *60 0.0505563
*CONN
*P io_in[37] I
*I *804:io_in[37] I *D picorv32_soc
*CAP
1 io_in[37] 0.0146821
2 *804:io_in[37] 0.010596
3 *60:11 0.0252782
*RES
1 io_in[37] *60:11 49.6439 
2 *60:11 *804:io_in[37] 35.1428 
*END

*D_NET *61 0.353082
*CONN
*P io_in[3] I
*I *804:io_in[3] I *D picorv32_soc
*CAP
1 io_in[3] 0.0333594
2 *804:io_in[3] 0.00294185
3 *61:17 0.00552066
4 *61:15 0.00257882
5 *61:13 0.0522039
6 *61:11 0.0522039
7 *61:9 0.00750326
8 *61:7 0.00750326
9 *61:5 0.0333594
10 *804:io_in[3] *731:23 0.000824822
11 *804:io_in[3] *732:13 0.000737354
12 *804:io_in[3] *737:28 0.000833731
13 *804:io_in[3] *739:15 0.000770682
14 *804:io_in[3] *763:25 0.000745318
15 *804:io_in[3] *764:13 0
16 *61:9 *679:23 0.0199449
17 *61:13 *63:13 0.000107999
18 *61:13 *79:10 0
19 *61:13 *90:13 0.00133392
20 *61:13 *128:21 0.120106
21 *61:13 *137:15 0
22 *61:13 *540:44 0
23 *61:13 *651:16 0.00426052
24 *61:13 *653:19 0
25 *61:13 *654:9 0
26 *61:13 *689:11 0
27 *61:13 *690:11 0
28 *61:13 *691:11 0
29 *61:17 *137:11 0.00608844
30 *61:17 *738:23 0.000154452
31 *61:17 *761:21 0
*RES
1 io_in[3] *61:5 94.3948 
2 *61:5 *61:7 3.41 
3 *61:7 *61:9 244.804 
4 *61:9 *61:11 3.41 
5 *61:11 *61:13 227.778 
6 *61:13 *61:15 3.41 
7 *61:15 *61:17 79.6607 
8 *61:17 *804:io_in[3] 18.2184 
*END

*D_NET *62 0.399105
*CONN
*P io_in[4] I
*I *804:io_in[4] I *D picorv32_soc
*CAP
1 io_in[4] 0.000288566
2 *804:io_in[4] 0.00925154
3 *62:29 0.10951
4 *62:25 0.102073
5 *62:13 0.0203732
6 *62:11 0.0188469
7 *804:io_in[4] *106:11 0.000119127
8 *62:13 *99:23 0.00294968
9 *62:25 *99:21 0.000167311
10 *62:25 *100:21 0
11 *62:25 *138:27 0.000284756
12 *62:29 *99:21 0.132484
13 *52:19 *62:13 0.000377236
14 *52:19 *62:25 0.00237952
*RES
1 io_in[4] *62:11 4.21057 
2 *62:11 *62:13 63.9169 
3 *62:13 *62:25 14.4537 
4 *62:25 *62:29 36.1333 
5 *62:29 *804:io_in[4] 31.4486 
*END

*D_NET *63 0.519931
*CONN
*P io_in[5] I
*I *804:io_in[5] I *D picorv32_soc
*CAP
1 io_in[5] 2.82134e-05
2 *804:io_in[5] 0.0125875
3 *63:27 0.0136297
4 *63:17 0.00354166
5 *63:15 0.00249949
6 *63:13 0.0400962
7 *63:11 0.0400962
8 *63:9 0.0102084
9 *63:7 0.0102366
10 *63:9 *99:23 0.00511141
11 *63:9 *138:29 0.0366519
12 *63:9 *139:33 0.0487591
13 *63:13 io_oeb[1] 0
14 *63:13 *802:Di0[0] 0.000473504
15 *63:13 *90:13 4.70002e-05
16 *63:13 *137:15 0.0700267
17 *63:13 *138:27 0.015841
18 *63:17 *100:11 0.00259392
19 *63:17 *138:11 0.000211218
20 *63:17 *139:17 0.0135107
21 *63:17 *748:15 0.00756089
22 *63:27 *100:11 3.78474e-05
23 *63:27 *138:7 0
24 *63:27 *139:13 0.00150199
25 *63:27 *750:15 0.000342673
26 *63:27 *751:15 0.000596709
27 *52:19 *63:9 0.000856331
28 *52:21 *63:13 0.182776
29 *61:13 *63:13 0.000107999
*RES
1 io_in[5] *63:7 3.46953 
2 *63:7 *63:9 598.161 
3 *63:9 *63:11 3.41 
4 *63:11 *63:13 285.431 
5 *63:13 *63:15 3.41 
6 *63:15 *63:17 165.875 
7 *63:17 *63:27 13.8098 
8 *63:27 *804:io_in[5] 36.6334 
*END

*D_NET *64 0.313646
*CONN
*P io_in[6] I
*I *804:io_in[6] I *D picorv32_soc
*CAP
1 io_in[6] 0.00447148
2 *804:io_in[6] 0.0140934
3 *64:17 0.0424466
4 *64:15 0.0283532
5 *64:13 0.0733977
6 *64:11 0.0778692
7 *64:11 io_oeb[5] 0.00380522
8 *64:11 io_out[6] 0.00262958
9 *64:13 *140:13 0.0302668
10 *64:13 *646:29 0.0151087
11 *64:13 *647:33 9.51343e-06
12 *64:17 *685:14 0.0211949
*RES
1 io_in[6] *64:11 28.0593 
2 *64:11 *64:13 281.395 
3 *64:13 *64:15 3.41 
4 *64:15 *64:17 119.151 
5 *64:17 *804:io_in[6] 44.2232 
*END

*D_NET *65 0.345544
*CONN
*P io_in[7] I
*I *804:io_in[7] I *D picorv32_soc
*CAP
1 io_in[7] 0.109376
2 *804:io_in[7] 0.0041624
3 *65:9 0.0332037
4 *65:7 0.0290413
5 *65:5 0.109376
6 *65:9 *109:9 0
7 *65:9 *142:9 0.0603858
*RES
1 io_in[7] *65:5 310.631 
2 *65:5 *65:7 3.41 
3 *65:7 *65:9 134.172 
4 *65:9 *804:io_in[7] 15.2524 
*END

*D_NET *66 0.323708
*CONN
*P io_in[8] I
*I *804:io_in[8] I *D picorv32_soc
*CAP
1 io_in[8] 0.0996825
2 *804:io_in[8] 0.00710847
3 *66:9 0.0621713
4 *66:7 0.0550628
5 *66:5 0.0996825
6 *66:9 *105:9 0
*RES
1 io_in[8] *66:5 302.127 
2 *66:5 *66:7 3.41 
3 *66:7 *66:9 170.074 
4 *66:9 *804:io_in[8] 23.7563 
*END

*D_NET *67 0.398042
*CONN
*P io_in[9] I
*I *804:io_in[9] I *D picorv32_soc
*CAP
1 io_in[9] 0.106153
2 *804:io_in[9] 0.000566255
3 *67:9 0.0413243
4 *67:7 0.0407581
5 *67:5 0.106153
6 *67:9 *69:9 0.093807
7 *67:9 *143:9 0
8 *67:9 *730:14 0.000535477
9 *67:9 *760:21 0.000897601
10 *67:9 *762:13 0.000971251
11 *67:9 *769:15 0.00687654
*RES
1 io_in[9] *67:5 321.297 
2 *67:5 *67:7 3.41 
3 *67:7 *67:9 205.869 
4 *67:9 *804:io_in[9] 4.58657 
*END

*D_NET *68 0.286165
*CONN
*P io_oeb[0] O
*I *804:io_oeb[0] O *D picorv32_soc
*CAP
1 io_oeb[0] 0.00427933
2 *804:io_oeb[0] 0.00565754
3 *68:13 0.101394
4 *68:11 0.102772
5 io_oeb[0] io_out[0] 0.0095539
6 *68:11 *728:15 0.000778773
7 *68:11 *729:15 0.000696188
8 *68:11 *730:14 0.00240273
9 *68:11 *735:30 0.000781477
10 *68:11 *736:26 0.000561931
11 *68:11 *760:21 0.000696188
12 *68:11 *762:13 0.000787699
13 *68:11 *769:15 0
14 *68:13 io_out[1] 0
15 *68:13 *713:9 0.0558027
16 *68:13 *716:9 0
*RES
1 *804:io_oeb[0] *68:11 25.3333 
2 *68:11 *68:13 321.32 
3 *68:13 io_oeb[0] 27.1005 
*END

*D_NET *69 0.495704
*CONN
*P io_oeb[10] O
*I *804:io_oeb[10] O *D picorv32_soc
*CAP
1 io_oeb[10] 0.106094
2 *804:io_oeb[10] 0.000529158
3 *69:11 0.106094
4 *69:9 0.0327522
5 *69:7 0.0332814
6 *69:9 *70:9 0.120959
7 *69:9 *143:9 0
8 *69:9 *730:14 0.000989578
9 *69:9 *760:21 0.000630425
10 *69:9 *762:13 0.000566676
11 *67:9 *69:9 0.093807
*RES
1 *804:io_oeb[10] *69:7 4.44243 
2 *69:7 *69:9 258.71 
3 *69:9 *69:11 3.41 
4 *69:11 io_oeb[10] 321.441 
*END

*D_NET *70 0.480276
*CONN
*P io_oeb[11] O
*I *804:io_oeb[11] O *D picorv32_soc
*CAP
1 io_oeb[11] 0.106086
2 *804:io_oeb[11] 0.000464218
3 *70:11 0.106086
4 *70:9 0.0659499
5 *70:7 0.0664141
6 *70:9 *728:15 0.00227449
7 *70:9 *729:15 0.00203329
8 *70:9 *730:14 0.00564183
9 *70:9 *760:21 0.00203329
10 *70:9 *762:13 0.00233285
11 *69:9 *70:9 0.120959
*RES
1 *804:io_oeb[11] *70:7 4.2983 
2 *70:7 *70:9 294.612 
3 *70:9 *70:11 3.41 
4 *70:11 io_oeb[11] 321.585 
*END

*D_NET *71 0.423398
*CONN
*P io_oeb[12] O
*I *804:io_oeb[12] O *D picorv32_soc
*CAP
1 io_oeb[12] 0.0959955
2 *804:io_oeb[12] 0.0116017
3 *71:11 0.0959955
4 *71:9 0.104102
5 *71:7 0.115703
6 *71:9 *103:9 0
7 *71:9 *107:9 0
*RES
1 *804:io_oeb[12] *71:7 34.5663 
2 *71:7 *71:9 330.513 
3 *71:9 *71:11 3.41 
4 *71:11 io_oeb[12] 291.317 
*END

*D_NET *72 0.443851
*CONN
*P io_oeb[13] O
*I *804:io_oeb[13] O *D picorv32_soc
*CAP
1 io_oeb[13] 0.103207
2 *804:io_oeb[13] 0.00351141
3 *72:11 0.103207
4 *72:9 0.115208
5 *72:7 0.118719
*RES
1 *804:io_oeb[13] *72:7 12.9463 
2 *72:7 *72:9 366.309 
3 *72:9 *72:11 3.41 
4 *72:11 io_oeb[13] 312.937 
*END

*D_NET *73 0.467431
*CONN
*P io_oeb[14] O
*I *804:io_oeb[14] O *D picorv32_soc
*CAP
1 io_oeb[14] 0.105214
2 *804:io_oeb[14] 0.00138027
3 *73:11 0.105214
4 *73:9 0.12637
5 *73:7 0.127751
6 *73:9 *143:9 0
7 *73:9 *740:10 0
8 *73:9 *768:15 0.000545409
9 *73:9 *786:18 0.00053249
10 *73:9 *801:18 0.000422799
11 *34:9 *73:9 0
*RES
1 *804:io_oeb[14] *73:7 6.4603 
2 *73:7 *73:9 402.21 
3 *73:9 *73:11 3.41 
4 *73:11 io_oeb[14] 319.423 
*END

*D_NET *74 0.457469
*CONN
*P io_oeb[15] O
*I *804:io_oeb[15] O *D picorv32_soc
*CAP
1 io_oeb[15] 0.00028007
2 *804:io_oeb[15] 0.020368
3 *74:13 0.0912333
4 *74:11 0.0909533
5 *74:9 0.117133
6 *74:7 0.117133
7 *74:5 0.020368
8 *74:9 *75:9 0
9 *42:9 *74:9 0
*RES
1 *804:io_oeb[15] *74:5 417.777 
2 *74:5 *74:7 3.41 
3 *74:7 *74:9 349.498 
4 *74:9 *74:11 3.41 
5 *74:11 *74:13 1870.34 
6 *74:13 io_oeb[15] 5.84821 
*END

*D_NET *75 0.42466
*CONN
*P io_oeb[16] O
*I *804:io_oeb[16] O *D picorv32_soc
*CAP
1 io_oeb[16] 0.0909174
2 *804:io_oeb[16] 0.0213598
3 *75:11 0.0909174
4 *75:9 0.100053
5 *75:7 0.100053
6 *75:5 0.0213598
7 *74:9 *75:9 0
*RES
1 *804:io_oeb[16] *75:5 423.848 
2 *75:5 *75:7 3.41 
3 *75:7 *75:9 301.358 
4 *75:9 *75:11 3.41 
5 *75:11 io_oeb[16] 1869.46 
*END

*D_NET *76 0.392556
*CONN
*P io_oeb[17] O
*I *804:io_oeb[17] O *D picorv32_soc
*CAP
1 io_oeb[17] 0.000297191
2 *804:io_oeb[17] 0.0216875
3 *76:13 0.0906266
4 *76:11 0.0903294
5 *76:9 0.0839637
6 *76:7 0.0839637
7 *76:5 0.0216875
8 *76:9 *78:9 0
*RES
1 *804:io_oeb[17] *76:5 430.527 
2 *76:5 *76:7 3.41 
3 *76:7 *76:9 253.073 
4 *76:9 *76:11 3.41 
5 *76:11 *76:13 1857.59 
6 *76:13 io_oeb[17] 5.84821 
*END

*D_NET *77 0.359462
*CONN
*P io_oeb[18] O
*I *804:io_oeb[18] O *D picorv32_soc
*CAP
1 io_oeb[18] 0.0900145
2 *804:io_oeb[18] 0.0215689
3 *77:11 0.0900145
4 *77:9 0.0681473
5 *77:7 0.0681473
6 *77:5 0.0215689
7 *77:9 *78:9 0
*RES
1 *804:io_oeb[18] *77:5 442.67 
2 *77:5 *77:7 3.41 
3 *77:7 *77:9 204.86 
4 *77:9 *77:11 3.41 
5 *77:11 io_oeb[18] 1850.63 
*END

*D_NET *78 0.327718
*CONN
*P io_oeb[19] O
*I *804:io_oeb[19] O *D picorv32_soc
*CAP
1 io_oeb[19] 0.0903287
2 *804:io_oeb[19] 0.0212556
3 *78:11 0.0903287
4 *78:9 0.0522749
5 *78:7 0.0522749
6 *78:5 0.0212556
7 *76:9 *78:9 0
8 *77:9 *78:9 0
*RES
1 *804:io_oeb[19] *78:5 436.598 
2 *78:5 *78:7 3.41 
3 *78:7 *78:9 156.648 
4 *78:9 *78:11 3.41 
5 *78:11 io_oeb[19] 1856.71 
*END

*D_NET *79 0.340549
*CONN
*P io_oeb[1] O
*I *804:io_oeb[1] O *D picorv32_soc
*CAP
1 io_oeb[1] 0.0328276
2 *804:io_oeb[1] 0.00477417
3 *79:32 0.0341226
4 *79:18 0.0159893
5 *79:16 0.0148488
6 *79:10 0.0314094
7 *79:8 0.0360291
8 io_oeb[1] *137:15 0
9 io_oeb[1] *138:27 0.00637301
10 *79:8 *731:23 0.00162837
11 *79:8 *732:13 0.00145569
12 *79:8 *737:28 0.00162837
13 *79:8 *739:15 0.00150523
14 *79:8 *763:25 0.00145569
15 *79:8 *764:13 0
16 *79:10 *139:21 0.0835715
17 *79:10 *139:29 0.00243056
18 *79:10 *540:44 0.0540759
19 *79:10 *651:16 0.00153309
20 *79:10 *653:9 0.00143784
21 *79:10 *654:9 0.000186125
22 *79:10 *731:27 2.86613e-05
23 *79:10 *763:23 7.13706e-06
24 *79:10 *794:17 0.000297265
25 *79:18 *139:29 0
26 *79:18 *646:17 0
27 *79:18 *647:17 0
28 *79:18 *648:17 0
29 *79:18 *649:19 0
30 *79:18 *652:9 0.0128042
31 *79:32 *802:Di0[2] 0
32 *79:32 *651:18 0
33 *79:32 *652:9 5.29004e-05
34 *79:32 *654:9 4.65519e-05
35 *79:32 *662:15 1.94945e-05
36 *79:32 *695:5 1.0562e-05
37 *61:13 *79:10 0
38 *63:13 io_oeb[1] 0
*RES
1 *804:io_oeb[1] *79:8 21.0359 
2 *79:8 *79:10 175.998 
3 *79:10 *79:16 10.6154 
4 *79:16 *79:18 277.768 
5 *79:18 *79:32 17.6936 
6 *79:32 io_oeb[1] 98.1783 
*END

*D_NET *80 0.315705
*CONN
*P io_oeb[20] O
*I *804:io_oeb[20] O *D picorv32_soc
*CAP
1 io_oeb[20] 0.110546
2 *804:io_oeb[20] 0.000999792
3 *80:19 0.110546
4 *80:17 0.0153802
5 *80:15 0.0154755
6 *80:9 0.0140116
7 *80:7 0.014916
8 *80:9 *778:9 0.0127262
9 *80:9 *780:9 0.00116632
10 *80:9 *781:9 0.000322756
11 *80:9 *783:9 0.000431491
12 *80:9 *790:9 0.0055366
13 *80:9 *800:9 0
14 *80:17 *790:9 0.0136471
*RES
1 *804:io_oeb[20] *80:7 22.2939 
2 *80:7 *80:9 54.8897 
3 *80:9 *80:15 9.70464 
4 *80:15 *80:17 305.286 
5 *80:17 *80:19 4.5 
6 *80:19 io_oeb[20] 2272.75 
*END

*D_NET *81 0.30813
*CONN
*P io_oeb[21] O
*I *804:io_oeb[21] O *D picorv32_soc
*CAP
1 io_oeb[21] 0.000226468
2 *804:io_oeb[21] 0.111139
3 *81:9 0.00750053
4 *81:7 0.00727406
5 *81:5 0.111139
6 *81:9 io_oeb[22] 0
7 *81:9 io_out[22] 0
8 *81:9 *112:24 0.00316115
9 *81:9 *113:9 0.02968
10 *81:9 *119:9 0.0380107
*RES
1 *804:io_oeb[21] *81:5 2289.6 
2 *81:5 *81:7 3.41 
3 *81:7 *81:9 60.1506 
4 *81:9 io_oeb[21] 7.11536 
*END

*D_NET *82 0.230761
*CONN
*P io_oeb[22] O
*I *804:io_oeb[22] O *D picorv32_soc
*CAP
1 io_oeb[22] 0.00326232
2 *804:io_oeb[22] 0.111295
3 *82:5 0.114558
4 io_oeb[22] *115:9 0.000204407
5 io_oeb[22] *116:9 0.000648004
6 io_oeb[22] *118:9 0.000486049
7 io_oeb[22] *119:9 0.000307009
8 *81:9 io_oeb[22] 0
*RES
1 *804:io_oeb[22] *82:5 2293.24 
2 *82:5 io_oeb[22] 20.9621 
*END

*D_NET *83 0.259661
*CONN
*P io_oeb[23] O
*I *804:io_oeb[23] O *D picorv32_soc
*CAP
1 io_oeb[23] 0.111517
2 *804:io_oeb[23] 0.0110236
3 *83:8 0.122541
4 io_oeb[23] *93:9 0.00566083
5 *83:8 *129:25 0
6 *83:8 *726:25 0.00175353
7 *83:8 *727:16 0.000153516
8 *83:8 *791:9 9.12147e-06
9 *83:8 *798:19 3.91821e-05
10 *804:io_in[23] *83:8 0.00696288
*RES
1 *804:io_oeb[23] *83:8 43.1886 
2 *83:8 io_oeb[23] 2294.46 
*END

*D_NET *84 0.262288
*CONN
*P io_oeb[24] O
*I *804:io_oeb[24] O *D picorv32_soc
*CAP
1 io_oeb[24] 0.0112998
2 *804:io_oeb[24] 0.00253828
3 *84:9 0.128606
4 *84:7 0.119844
*RES
1 *804:io_oeb[24] *84:7 10.3519 
2 *84:7 *84:9 374.405 
3 *84:9 io_oeb[24] 37.5148 
*END

*D_NET *85 0.241566
*CONN
*P io_oeb[25] O
*I *804:io_oeb[25] O *D picorv32_soc
*CAP
1 io_oeb[25] 0.00890441
2 *804:io_oeb[25] 0.00510021
3 *85:9 0.115683
4 *85:7 0.111878
5 *85:9 *125:9 0
6 *49:15 *85:9 0
*RES
1 *804:io_oeb[25] *85:7 17.8468 
2 *85:7 *85:9 339.995 
3 *85:9 io_oeb[25] 30.0198 
*END

*D_NET *86 0.22077
*CONN
*P io_oeb[26] O
*I *804:io_oeb[26] O *D picorv32_soc
*CAP
1 io_oeb[26] 0.00761633
2 *804:io_oeb[26] 0.0069343
3 *86:9 0.103451
4 *86:7 0.102769
5 *53:15 *86:9 0
*RES
1 *804:io_oeb[26] *86:7 23.3239 
2 *86:7 *86:9 305.478 
3 *86:9 io_oeb[26] 24.5428 
*END

*D_NET *87 0.198361
*CONN
*P io_oeb[27] O
*I *804:io_oeb[27] O *D picorv32_soc
*CAP
1 io_oeb[27] 0.0104458
2 *804:io_oeb[27] 0.0036095
3 *87:9 0.0955711
4 *87:7 0.0887348
5 *87:9 *94:9 0
*RES
1 *804:io_oeb[27] *87:7 13.5228 
2 *87:7 *87:9 271.068 
3 *87:9 io_oeb[27] 34.3438 
*END

*D_NET *88 0.17669
*CONN
*P io_oeb[28] O
*I *804:io_oeb[28] O *D picorv32_soc
*CAP
1 io_oeb[28] 0.0100939
2 *804:io_oeb[28] 0.00435488
3 *88:9 0.0839901
4 *88:7 0.0782511
5 io_oeb[28] *126:25 0
6 *88:9 *92:9 0
7 *88:9 *125:9 0
*RES
1 *804:io_oeb[28] *88:7 15.6848 
2 *88:7 *88:9 235.166 
3 *88:9 io_oeb[28] 40.1267 
*END

*D_NET *89 0.154953
*CONN
*P io_oeb[29] O
*I *804:io_oeb[29] O *D picorv32_soc
*CAP
1 io_oeb[29] 0.0126963
2 *804:io_oeb[29] 0.00136456
3 *89:9 0.0761119
4 *89:7 0.0647802
*RES
1 *804:io_oeb[29] *89:7 7.03683 
2 *89:7 *89:9 202.034 
3 *89:9 io_oeb[29] 40.6293 
*END

*D_NET *90 0.490754
*CONN
*P io_oeb[2] O
*I *804:io_oeb[2] O *D picorv32_soc
*CAP
1 io_oeb[2] 0.00543221
2 *804:io_oeb[2] 0.0130691
3 *90:13 0.0307831
4 *90:11 0.0296087
5 *90:7 0.017327
6 io_oeb[2] io_out[2] 0.00656509
7 io_oeb[2] *99:23 0.010155
8 *90:11 *803:cpu_mem_wdata[21] 0.000369617
9 *90:11 *100:11 0.000805545
10 *90:11 *138:11 0
11 *90:11 *681:13 0.000265778
12 *90:13 *128:21 0.180131
13 *90:13 *651:16 0.00426052
14 *52:19 io_oeb[2] 0.000920301
15 *52:21 *90:13 0.1826
16 *52:27 *90:11 0.00707931
17 *61:13 *90:13 0.00133392
18 *63:13 *90:13 4.70002e-05
*RES
1 *804:io_oeb[2] *90:7 41.0523 
2 *90:7 *90:11 22.4199 
3 *90:11 *90:13 284.422 
4 *90:13 io_oeb[2] 40.0913 
*END

*D_NET *91 0.134742
*CONN
*P io_oeb[30] O
*I *804:io_oeb[30] O *D picorv32_soc
*CAP
1 io_oeb[30] 0.00842946
2 *804:io_oeb[30] 0.00561828
3 *91:9 0.0575729
4 *91:7 0.0547618
5 *91:9 *122:9 0
6 *91:9 *766:27 0.00836002
7 *49:15 *91:9 0
8 *56:15 *91:9 0
*RES
1 *804:io_oeb[30] *91:7 20.0088 
2 *91:7 *91:9 167.73 
3 *91:9 io_oeb[30] 27.8578 
*END

*D_NET *92 0.140077
*CONN
*P io_oeb[31] O
*I *804:io_oeb[31] O *D picorv32_soc
*CAP
1 io_oeb[31] 0.00956892
2 *804:io_oeb[31] 0.00458029
3 *92:9 0.0402278
4 *92:7 0.0352392
5 *92:9 *125:9 0.0504611
6 *88:9 *92:9 0
*RES
1 *804:io_oeb[31] *92:7 16.6938 
2 *92:7 *92:9 133.214 
3 *92:9 io_oeb[31] 31.1729 
*END

*D_NET *93 0.0974755
*CONN
*P io_oeb[32] O
*I *804:io_oeb[32] O *D picorv32_soc
*CAP
1 io_oeb[32] 0.00216711
2 *804:io_oeb[32] 0.0124834
3 *93:9 0.0332627
4 *93:7 0.0435789
5 io_oeb[32] *129:27 0.000322558
6 io_oeb[23] *93:9 0.00566083
*RES
1 *804:io_oeb[32] *93:7 38.4579 
2 *93:7 *93:9 98.3773 
3 *93:9 io_oeb[32] 9.52783 
*END

*D_NET *94 0.0710755
*CONN
*P io_oeb[33] O
*I *804:io_oeb[33] O *D picorv32_soc
*CAP
1 io_oeb[33] 0.0119882
2 *804:io_oeb[33] 0.0031843
3 *94:9 0.031961
4 *94:7 0.0231571
5 io_oeb[33] *129:25 7.1588e-05
6 io_oeb[33] *132:9 0.00071338
7 *87:9 *94:9 0
*RES
1 *804:io_oeb[33] *94:7 12.5139 
2 *94:7 *94:9 62.7951 
3 *94:9 io_oeb[33] 43.4042 
*END

*D_NET *95 0.0467819
*CONN
*P io_oeb[34] O
*I *804:io_oeb[34] O *D picorv32_soc
*CAP
1 io_oeb[34] 0.0127823
2 *804:io_oeb[34] 0.0106087
3 *95:7 0.023391
*RES
1 *804:io_oeb[34] *95:7 35.1428 
2 *95:7 io_oeb[34] 42.5062 
*END

*D_NET *96 0.0301006
*CONN
*P io_oeb[35] O
*I *804:io_oeb[35] O *D picorv32_soc
*CAP
1 io_oeb[35] 0.000133909
2 *804:io_oeb[35] 0.0149164
3 *96:9 0.0150503
*RES
1 *804:io_oeb[35] *96:9 48.2809 
2 *96:9 io_oeb[35] 3.85963 
*END

*D_NET *97 0.051367
*CONN
*P io_oeb[36] O
*I *804:io_oeb[36] O *D picorv32_soc
*CAP
1 io_oeb[36] 0.00600867
2 *804:io_oeb[36] 0.00199632
3 *97:12 0.0195957
4 *97:8 0.0155833
5 *97:8 *727:18 0.00479138
6 *97:8 *756:18 0.000960808
7 *97:8 *788:25 0.00243083
*RES
1 *804:io_oeb[36] *97:8 20.0771 
2 *97:8 *97:12 41.6523 
3 *97:12 io_oeb[36] 21.8512 
*END

*D_NET *98 0.0700665
*CONN
*P io_oeb[37] O
*I *804:io_oeb[37] O *D picorv32_soc
*CAP
1 io_oeb[37] 7.66701e-05
2 *804:io_oeb[37] 0.0137571
3 *98:9 0.0110299
4 *98:7 0.0247103
5 *98:9 io_out[37] 0.0204925
*RES
1 *804:io_oeb[37] *98:7 44.2232 
2 *98:7 *98:9 52.8875 
3 *98:9 io_oeb[37] 3.64657 
*END

*D_NET *99 0.448401
*CONN
*P io_oeb[3] O
*I *804:io_oeb[3] O *D picorv32_soc
*CAP
1 io_oeb[3] 0.000131597
2 *804:io_oeb[3] 0.0099969
3 *99:23 0.0139329
4 *99:21 0.0722188
5 *99:11 0.0684144
6 *99:21 *100:21 0.119975
7 *99:23 *138:29 0.0110616
8 io_oeb[2] *99:23 0.010155
9 *52:19 *99:23 0.0018018
10 *62:13 *99:23 0.00294968
11 *62:25 *99:21 0.000167311
12 *62:29 *99:21 0.132484
13 *63:9 *99:23 0.00511141
*RES
1 *804:io_oeb[3] *99:11 33.6146 
2 *99:11 *99:21 44.2252 
3 *99:21 *99:23 59.173 
4 *99:23 io_oeb[3] 3.72177 
*END

*D_NET *100 0.413502
*CONN
*P io_oeb[4] O
*I *804:io_oeb[4] O *D picorv32_soc
*CAP
1 io_oeb[4] 0.000181367
2 *804:io_oeb[4] 0.0128064
3 *100:23 0.0159633
4 *100:21 0.0985277
5 *100:11 0.0886605
6 *100:7 0.0187212
7 *100:7 *139:13 0
8 *100:11 *138:11 0.00630216
9 *100:11 *139:13 0.000270221
10 *100:11 *139:17 0.00261602
11 *100:11 *682:10 0.00304653
12 *100:23 *139:33 0.0422176
13 *52:19 *100:23 0.000776791
14 *62:25 *100:21 0
15 *63:17 *100:11 0.00259392
16 *63:27 *100:11 3.78474e-05
17 *90:11 *100:11 0.000805545
18 *99:21 *100:21 0.119975
*RES
1 *804:io_oeb[4] *100:7 40.4758 
2 *100:7 *100:11 26.9538 
3 *100:11 *100:21 44.4297 
4 *100:21 *100:23 517.411 
5 *100:23 io_oeb[4] 4.0304 
*END

*D_NET *101 0.365096
*CONN
*P io_oeb[5] O
*I *804:io_oeb[5] O *D picorv32_soc
*CAP
1 io_oeb[5] 0.00681917
2 *804:io_oeb[5] 0.0133627
3 *101:15 0.104219
4 *101:9 0.141109
5 *101:7 0.0570717
6 *101:9 *102:9 0
7 *101:9 *111:9 0
8 *101:9 *682:10 0.00815163
9 *101:9 *748:15 0.00576699
10 *101:9 *749:15 0.00603199
11 *101:9 *750:15 0.00673833
12 *101:9 *751:15 0.0120205
13 *64:11 io_oeb[5] 0.00380522
*RES
1 *804:io_oeb[5] *101:7 40.0434 
2 *101:7 *101:9 114.783 
3 *101:9 *101:15 33.2194 
4 *101:15 io_oeb[5] 28.9858 
*END

*D_NET *102 0.382065
*CONN
*P io_oeb[6] O
*I *804:io_oeb[6] O *D picorv32_soc
*CAP
1 io_oeb[6] 0.00044671
2 *804:io_oeb[6] 0.0130851
3 *102:29 0.0367347
4 *102:27 0.0364708
5 *102:21 0.0268592
6 *102:19 0.0300189
7 *102:9 0.0335828
8 *102:7 0.0433254
9 io_oeb[6] *140:13 2.3494e-05
10 *102:9 *803:cpu_mem_wdata[21] 0.00556988
11 *102:9 *111:9 0.0185224
12 *102:9 *681:13 0.0176168
13 *102:9 *683:15 0.00825251
14 *102:19 *140:13 0.00108845
15 *102:19 *656:8 0.00063771
16 *102:19 *667:8 0.000220173
17 *102:19 *682:8 0.000216247
18 *102:19 *685:12 0.000172462
19 *102:19 *686:16 0.00713199
20 *102:19 *687:16 0.00439211
21 *102:21 *657:8 0.00182447
22 *102:21 *657:10 0
23 *102:21 *660:11 0.0444201
24 *102:21 *664:6 0.00376852
25 *102:21 *674:6 0.000619635
26 *102:21 *675:6 0.000963737
27 *102:21 *676:13 0.00122381
28 *102:21 *683:13 0.00492246
29 *102:21 *684:8 0.000680146
30 *102:21 *685:12 0.000416212
31 *102:21 *686:16 0.000392834
32 *102:21 *687:16 0
33 *102:29 *802:A0[7] 0.000536813
34 *102:29 *649:25 0.00145136
35 *102:29 *657:10 0.00578823
36 *102:29 *657:24 0.000419561
37 *102:29 *664:6 0.000681821
38 *102:29 *664:24 0.00213633
39 *102:29 *674:14 9.31523e-05
40 *102:29 *675:14 0.00756801
41 *102:29 *676:17 0.0045627
42 *102:29 *679:11 0.00824734
43 *102:29 *679:17 0.00457466
44 *102:29 *679:19 0.0024057
45 *101:9 *102:9 0
*RES
1 *804:io_oeb[6] *102:7 41.3406 
2 *102:7 *102:9 116.275 
3 *102:9 *102:19 28.7605 
4 *102:19 *102:21 114.741 
5 *102:21 *102:27 10.9189 
6 *102:27 *102:29 866.732 
7 *102:29 io_oeb[6] 15.6762 
*END

*D_NET *103 0.330732
*CONN
*P io_oeb[7] O
*I *804:io_oeb[7] O *D picorv32_soc
*CAP
1 io_oeb[7] 0.0957028
2 *804:io_oeb[7] 0.0110447
3 *103:11 0.0957028
4 *103:9 0.0441627
5 *103:7 0.0552074
6 *103:9 *803:cpu_mem_wdata[20] 0.00549771
7 *103:9 *787:18 0.00851884
8 *103:9 *789:13 0.00981349
9 *103:9 *790:13 0.00508196
10 *32:9 *103:9 0
11 *71:9 *103:9 0
*RES
1 *804:io_oeb[7] *103:7 35.7194 
2 *103:7 *103:9 151.111 
3 *103:9 *103:11 3.41 
4 *103:11 io_oeb[7] 290.164 
*END

*D_NET *104 0.353579
*CONN
*P io_oeb[8] O
*I *804:io_oeb[8] O *D picorv32_soc
*CAP
1 io_oeb[8] 0.103859
2 *804:io_oeb[8] 0.0093267
3 *104:11 0.103859
4 *104:9 0.0590285
5 *104:7 0.0683552
6 *104:9 *803:cpu_mem_wdata[19] 0.00914977
*RES
1 *804:io_oeb[8] *104:7 30.2423 
2 *104:7 *104:9 187.013 
3 *104:9 *104:11 3.41 
4 *104:11 io_oeb[8] 295.641 
*END

*D_NET *105 0.36239
*CONN
*P io_oeb[9] O
*I *804:io_oeb[9] O *D picorv32_soc
*CAP
1 io_oeb[9] 0.0992884
2 *804:io_oeb[9] 0.00798998
3 *105:11 0.0992884
4 *105:9 0.070336
5 *105:7 0.078326
6 *105:9 *803:cpu_mem_wdata[18] 0.0071611
7 *66:9 *105:9 0
*RES
1 *804:io_oeb[9] *105:7 24.9094 
2 *105:7 *105:9 222.915 
3 *105:9 *105:11 3.41 
4 *105:11 io_oeb[9] 300.974 
*END

*D_NET *106 0.312474
*CONN
*P io_out[0] O
*I *804:io_out[0] O *D picorv32_soc
*CAP
1 io_out[0] 0.00523034
2 *804:io_out[0] 0.00680053
3 *106:13 0.104042
4 *106:11 0.105613
5 *106:13 *530:14 0
6 *106:13 *699:9 0.068061
7 io_oeb[0] io_out[0] 0.0095539
8 *804:io_in[4] *106:11 0.000119127
9 *30:15 io_out[0] 0.0130543
*RES
1 *804:io_out[0] *106:11 26.9438 
2 *106:11 *106:13 315.699 
3 *106:13 io_out[0] 39.6338 
*END

*D_NET *107 0.387261
*CONN
*P io_out[10] O
*I *804:io_out[10] O *D picorv32_soc
*CAP
1 io_out[10] 0.102677
2 *804:io_out[10] 0.0105653
3 *107:11 0.102677
4 *107:9 0.0788749
5 *107:7 0.0894402
6 *107:9 *785:18 0.00302639
7 *71:9 *107:9 0
*RES
1 *804:io_out[10] *107:7 33.5574 
2 *107:7 *107:9 250.294 
3 *107:9 *107:11 3.41 
4 *107:11 io_out[10] 292.326 
*END

*D_NET *108 0.397269
*CONN
*P io_out[11] O
*I *804:io_out[11] O *D picorv32_soc
*CAP
1 io_out[11] 0.100352
2 *804:io_out[11] 0.00645153
3 *108:11 0.100352
4 *108:9 0.0900916
5 *108:7 0.0965431
6 *108:9 *743:5 0.00347909
*RES
1 *804:io_out[11] *108:7 21.5943 
2 *108:7 *108:9 286.089 
3 *108:9 *108:11 3.41 
4 *108:11 io_out[11] 304.289 
*END

*D_NET *109 0.418729
*CONN
*P io_out[12] O
*I *804:io_out[12] O *D picorv32_soc
*CAP
1 io_out[12] 0.102168
2 *804:io_out[12] 0.0046365
3 *109:11 0.102168
4 *109:9 0.101223
5 *109:7 0.105859
6 *109:9 *142:9 0
7 *109:9 *742:5 0.00267413
8 *65:9 *109:9 0
*RES
1 *804:io_out[12] *109:7 16.2614 
2 *109:7 *109:9 321.991 
3 *109:9 *109:11 3.41 
4 *109:11 io_out[12] 309.622 
*END

*D_NET *110 0.45261
*CONN
*P io_out[13] O
*I *804:io_out[13] O *D picorv32_soc
*CAP
1 io_out[13] 0.108003
2 *804:io_out[13] 0.00572474
3 *110:11 0.108003
4 *110:9 0.112577
5 *110:7 0.118302
*RES
1 *804:io_out[13] *110:7 18.4234 
2 *110:7 *110:9 357.892 
3 *110:9 *110:11 3.41 
4 *110:11 io_out[13] 307.46 
*END

*D_NET *111 0.468294
*CONN
*P io_out[14] O
*I *804:io_out[14] O *D picorv32_soc
*CAP
1 io_out[14] 0.0939117
2 *804:io_out[14] 0.0135364
3 *111:11 0.0939117
4 *111:9 0.117438
5 *111:7 0.130974
6 *101:9 *111:9 0
7 *102:9 *111:9 0.0185224
*RES
1 *804:io_out[14] *111:7 41.0523 
2 *111:7 *111:9 393.688 
3 *111:9 *111:11 3.41 
4 *111:11 io_out[14] 284.831 
*END

*D_NET *112 0.742299
*CONN
*P io_out[15] O
*I *804:io_out[15] O *D picorv32_soc
*CAP
1 io_out[15] 6.73681e-05
2 *804:io_out[15] 2.0976e-05
3 *112:24 0.151888
4 *112:10 0.298001
5 *112:8 0.146201
6 *112:8 *759:17 0
7 *112:8 *799:19 4.98422e-05
8 *112:24 io_out[22] 0.000578192
9 *112:24 *113:9 0.040469
10 *112:24 *114:9 0.0342598
11 *112:24 *115:9 0.0275331
12 *112:24 *116:9 0.0215171
13 *112:24 *118:9 0.0137794
14 *112:24 *119:9 0.00477279
15 *36:21 *112:10 0
16 *81:9 *112:24 0.00316115
*RES
1 *804:io_out[15] *112:8 6.90303 
2 *112:8 *112:10 402.53 
3 *112:10 *112:24 49.4395 
4 *112:24 io_out[15] 1.27679 
*END

*D_NET *113 0.495862
*CONN
*P io_out[16] O
*I *804:io_out[16] O *D picorv32_soc
*CAP
1 io_out[16] 0.000212883
2 *804:io_out[16] 0.111194
3 *113:9 0.0852671
4 *113:7 0.0850542
5 *113:5 0.111194
6 *113:9 io_out[22] 0
7 *113:9 *114:9 0
8 *113:9 *115:9 0.00633797
9 *113:9 *116:9 0.00893284
10 *113:9 *118:9 0.0121172
11 *113:9 *119:9 0.00467225
12 *39:11 *113:9 0.000731224
13 *81:9 *113:9 0.02968
14 *112:24 *113:9 0.040469
*RES
1 *804:io_out[16] *113:5 2288.99 
2 *113:5 *113:7 3.41 
3 *113:7 *113:9 313.177 
4 *113:9 io_out[16] 7.7225 
*END

*D_NET *114 0.518286
*CONN
*P io_out[17] O
*I *804:io_out[17] O *D picorv32_soc
*CAP
1 io_out[17] 7.81213e-05
2 *804:io_out[17] 0.111396
3 *114:9 0.0619394
4 *114:7 0.0618613
5 *114:5 0.111396
6 *114:9 *115:9 0.137356
7 *112:24 *114:9 0.0342598
8 *113:9 *114:9 0
*RES
1 *804:io_out[17] *114:5 2292.63 
2 *114:5 *114:7 3.41 
3 *114:7 *114:9 264.82 
4 *114:9 io_out[17] 5.02607 
*END

*D_NET *115 0.547128
*CONN
*P io_out[18] O
*I *804:io_out[18] O *D picorv32_soc
*CAP
1 io_out[18] 7.58846e-05
2 *804:io_out[18] 0.111341
3 *115:9 0.0233153
4 *115:7 0.0232394
5 *115:5 0.111341
6 *115:9 *116:9 0.106383
7 io_oeb[22] *115:9 0.000204407
8 *112:24 *115:9 0.0275331
9 *113:9 *115:9 0.00633797
10 *114:9 *115:9 0.137356
*RES
1 *804:io_out[18] *115:5 2292.03 
2 *115:5 *115:7 3.41 
3 *115:7 *115:9 216.751 
4 *115:9 io_out[18] 4.68679 
*END

*D_NET *116 0.471038
*CONN
*P io_out[19] O
*I *804:io_out[19] O *D picorv32_soc
*CAP
1 io_out[19] 0.000112925
2 *804:io_out[19] 0.111287
3 *116:9 0.0177445
4 *116:7 0.0176316
5 *116:5 0.111287
6 *116:9 *118:9 0.0754937
7 io_oeb[22] *116:9 0.000648004
8 *112:24 *116:9 0.0215171
9 *113:9 *116:9 0.00893284
10 *115:9 *116:9 0.106383
*RES
1 *804:io_out[19] *116:5 2291.42 
2 *116:5 *116:7 3.41 
3 *116:7 *116:9 168.467 
4 *116:9 io_out[19] 5.29393 
*END

*D_NET *117 0.236636
*CONN
*P io_out[1] O
*I *804:io_out[1] O *D picorv32_soc
*CAP
1 io_out[1] 0.0917322
2 *804:io_out[1] 0.0121326
3 *117:11 0.097756
4 *117:7 0.0181565
5 io_out[1] *713:9 0
6 io_out[1] *718:9 0.0157057
7 *117:11 *787:18 0.00115256
8 *68:13 io_out[1] 0
*RES
1 *804:io_out[1] *117:7 36.7283 
2 *117:7 *117:11 24.0179 
3 *117:11 io_out[1] 289.155 
*END

*D_NET *118 0.394396
*CONN
*P io_out[20] O
*I *804:io_out[20] O *D picorv32_soc
*CAP
1 io_out[20] 0.000150773
2 *804:io_out[20] 0.111232
3 *118:9 0.0127448
4 *118:7 0.0125941
5 *118:5 0.111232
6 *118:9 *119:9 0.0445654
7 io_oeb[22] *118:9 0.000486049
8 *112:24 *118:9 0.0137794
9 *113:9 *118:9 0.0121172
10 *116:9 *118:9 0.0754937
*RES
1 *804:io_out[20] *118:5 2290.81 
2 *118:5 *118:7 3.41 
3 *118:7 *118:9 120.254 
4 *118:9 io_out[20] 5.90107 
*END

*D_NET *119 0.328982
*CONN
*P io_out[21] O
*I *804:io_out[21] O *D picorv32_soc
*CAP
1 io_out[21] 0.00018862
2 *804:io_out[21] 0.111177
3 *119:9 0.00715033
4 *119:7 0.00696171
5 *119:5 0.111177
6 io_oeb[22] *119:9 0.000307009
7 *81:9 *119:9 0.0380107
8 *112:24 *119:9 0.00477279
9 *113:9 *119:9 0.00467225
10 *118:9 *119:9 0.0445654
*RES
1 *804:io_out[21] *119:5 2290.21 
2 *119:5 *119:7 3.41 
3 *119:7 *119:9 72.0416 
4 *119:9 io_out[21] 6.50821 
*END

*D_NET *120 0.239266
*CONN
*P io_out[22] O
*I *804:io_out[22] O *D picorv32_soc
*CAP
1 io_out[22] 0.00846467
2 *804:io_out[22] 0.110879
3 *120:5 0.119344
4 *81:9 io_out[22] 0
5 *112:24 io_out[22] 0.000578192
6 *113:9 io_out[22] 0
*RES
1 *804:io_out[22] *120:5 2284.74 
2 *120:5 io_out[22] 39.1394 
*END

*D_NET *121 0.239397
*CONN
*P io_out[23] O
*I *804:io_out[23] O *D picorv32_soc
*CAP
1 io_out[23] 0.00786519
2 *804:io_out[23] 0.000232377
3 *121:14 0.119025
4 *121:12 0.111392
5 *121:12 *725:19 0.000441615
6 *121:12 *726:25 0.000441615
*RES
1 *804:io_out[23] *121:12 10.4799 
2 *121:12 *121:14 2291 
3 *121:14 io_out[23] 32.8531 
*END

*D_NET *122 0.275365
*CONN
*P io_out[24] O
*I *804:io_out[24] O *D picorv32_soc
*CAP
1 io_out[24] 0.00784106
2 *804:io_out[24] 0.00657387
3 *122:9 0.125124
4 *122:7 0.123857
5 *56:15 *122:9 0.011969
6 *91:9 *122:9 0
*RES
1 *804:io_out[24] *122:7 21.1619 
2 *122:7 *122:9 382.502 
3 *122:9 io_out[24] 26.7048 
*END

*D_NET *123 0.266247
*CONN
*P io_out[25] O
*I *804:io_out[25] O *D picorv32_soc
*CAP
1 io_out[25] 0.00525527
2 *804:io_out[25] 0.00922113
3 *123:9 0.106573
4 *123:7 0.110539
5 *55:15 *123:9 0.0346584
*RES
1 *804:io_out[25] *123:7 29.8099 
2 *123:7 *123:9 348.091 
3 *123:9 io_out[25] 18.0568 
*END

*D_NET *124 0.256453
*CONN
*P io_out[26] O
*I *804:io_out[26] O *D picorv32_soc
*CAP
1 io_out[26] 0.00386789
2 *804:io_out[26] 0.010267
3 *124:9 0.0893661
4 *124:7 0.0957652
5 *50:11 *124:9 0
6 *54:11 *124:9 0.0571868
*RES
1 *804:io_out[26] *124:7 32.9808 
2 *124:7 *124:9 313.468 
3 *124:9 io_out[26] 14.6853 
*END

*D_NET *125 0.232784
*CONN
*P io_out[27] O
*I *804:io_out[27] O *D picorv32_soc
*CAP
1 io_out[27] 0.00989101
2 *804:io_out[27] 0.00502151
3 *125:9 0.0861401
4 *125:7 0.0812706
5 *85:9 *125:9 0
6 *88:9 *125:9 0
7 *92:9 *125:9 0.0504611
*RES
1 *804:io_out[27] *125:7 16.8379 
2 *125:7 *125:9 279.164 
3 *125:9 io_out[27] 31.0288 
*END

*D_NET *126 0.193519
*CONN
*P io_out[28] O
*I *804:io_out[28] O *D picorv32_soc
*CAP
1 io_out[28] 0.00339591
2 *804:io_out[28] 0.000100466
3 *126:25 0.0169191
4 *126:19 0.0663793
5 *126:17 0.0531966
6 *126:11 0.00551764
7 *126:9 0.0052776
8 *126:11 *725:23 0
9 *126:11 *727:18 0.00299145
10 *126:11 *756:18 0.0135377
11 *126:17 *129:25 0.000108466
12 *126:17 *759:17 1.90461e-05
13 *126:19 *127:9 0.0163693
14 *126:19 *131:9 0.0027113
15 *126:19 *788:23 0.000298912
16 *126:19 *788:25 0.000302057
17 io_oeb[28] *126:25 0
18 *46:15 *126:19 0.00639374
*RES
1 *804:io_out[28] *126:9 3.62307 
2 *126:9 *126:11 166.482 
3 *126:11 *126:17 7.76783 
4 *126:17 *126:19 204.804 
5 *126:19 *126:25 46.5037 
6 *126:25 io_out[28] 14.2654 
*END

*D_NET *127 0.217509
*CONN
*P io_out[29] O
*I *804:io_out[29] O *D picorv32_soc
*CAP
1 io_out[29] 0.000145724
2 *804:io_out[29] 0.000543124
3 *127:21 0.0197872
4 *127:19 0.0340909
5 *127:9 0.0353029
6 *127:7 0.0213966
7 *127:9 *726:27 0.0024223
8 *127:9 *745:10 0.00604728
9 *127:9 *759:13 0.00341093
10 *127:9 *788:25 0
11 *127:9 *791:13 0.00242443
12 *127:9 *798:23 0.00675678
13 *127:9 *799:27 0.00399274
14 *127:19 io_out[31] 0.000206247
15 *127:21 *129:27 0.0197075
16 *46:15 *127:9 0.0449049
17 *126:19 *127:9 0.0163693
*RES
1 *804:io_out[29] *127:7 4.7307 
2 *127:7 *127:9 128.1 
3 *127:9 *127:19 46.5601 
4 *127:19 *127:21 81.8646 
5 *127:21 io_out[29] 3.85963 
*END

*D_NET *128 0.43772
*CONN
*P io_out[2] O
*I *804:io_out[2] O *D picorv32_soc
*CAP
1 io_out[2] 0.00574869
2 *804:io_out[2] 0.0156991
3 *128:21 0.0417279
4 *128:19 0.0418809
5 *128:15 0.0216007
6 *128:19 *685:14 0
7 *128:21 *651:16 0.00426052
8 io_oeb[2] io_out[2] 0.00656509
9 *61:13 *128:21 0.120106
10 *90:13 *128:21 0.180131
*RES
1 *804:io_out[2] *128:15 44.4219 
2 *128:15 *128:19 20.2893 
3 *128:19 *128:21 280.386 
4 *128:21 io_out[2] 29.6636 
*END

*D_NET *129 0.17356
*CONN
*P io_out[30] O
*I *804:io_out[30] O *D picorv32_soc
*CAP
1 io_out[30] 0.000133909
2 *804:io_out[30] 0.0054613
3 *129:27 0.0272479
4 *129:25 0.0420832
5 *129:13 0.0204304
6 *129:13 *131:9 0.0200901
7 *129:13 *727:18 0.0107762
8 *129:25 *132:9 0.000418874
9 *129:25 *759:17 0.000577834
10 *129:25 *799:25 0
11 *129:27 io_out[31] 0.000322558
12 *129:27 io_out[32] 0.000398983
13 *129:27 io_out[33] 0.000246133
14 *129:27 *130:9 0.0210108
15 *129:27 *132:9 0.00415166
16 io_oeb[32] *129:27 0.000322558
17 io_oeb[33] *129:25 7.1588e-05
18 *804:io_in[23] *129:25 0
19 *83:8 *129:25 0
20 *126:17 *129:25 0.000108466
21 *127:21 *129:27 0.0197075
*RES
1 *804:io_out[30] *129:13 49.5884 
2 *129:13 *129:25 46.3304 
3 *129:25 *129:27 131.211 
4 *129:27 io_out[30] 3.85963 
*END

*D_NET *130 0.140809
*CONN
*P io_out[31] O
*I *804:io_out[31] O *D picorv32_soc
*CAP
1 io_out[31] 0.000240556
2 *804:io_out[31] 0.0145346
3 *130:9 0.0309114
4 *130:7 0.0452055
5 *130:9 *132:9 0.0283774
6 *127:19 io_out[31] 0.000206247
7 *129:27 io_out[31] 0.000322558
8 *129:27 *130:9 0.0210108
*RES
1 *804:io_out[31] *130:7 43.7908 
2 *130:7 *130:9 140.884 
3 *130:9 io_out[31] 4.1949 
*END

*D_NET *131 0.123437
*CONN
*P io_out[32] O
*I *804:io_out[32] O *D picorv32_soc
*CAP
1 io_out[32] 0.0142621
2 *804:io_out[32] 0.000118507
3 *131:9 0.0351298
4 *131:7 0.0209862
5 *131:9 *727:18 0.00239023
6 *131:9 *788:23 0.000270672
7 *131:9 *788:25 0.0270794
8 *126:19 *131:9 0.0027113
9 *129:13 *131:9 0.0200901
10 *129:27 io_out[32] 0.000398983
*RES
1 *804:io_out[32] *131:7 3.72177 
2 *131:7 *131:9 106.154 
3 *131:9 io_out[32] 44.6776 
*END

*D_NET *132 0.0992064
*CONN
*P io_out[33] O
*I *804:io_out[33] O *D picorv32_soc
*CAP
1 io_out[33] 0.000201779
2 *804:io_out[33] 0.0136585
3 *132:9 0.0114236
4 *132:7 0.0248803
5 *132:9 io_out[34] 0.0151347
6 io_oeb[33] *132:9 0.00071338
7 *58:13 *132:7 0
8 *129:25 *132:9 0.000418874
9 *129:27 io_out[33] 0.000246133
10 *129:27 *132:9 0.00415166
11 *130:9 *132:9 0.0283774
*RES
1 *804:io_out[33] *132:7 43.935 
2 *132:7 *132:9 72.0635 
3 *132:9 io_out[33] 3.94423 
*END

*D_NET *133 0.0599043
*CONN
*P io_out[34] O
*I *804:io_out[34] O *D picorv32_soc
*CAP
1 io_out[34] 0.0078853
2 *804:io_out[34] 0.0144995
3 *133:7 0.0223848
4 *132:9 io_out[34] 0.0151347
*RES
1 *804:io_out[34] *133:7 44.0791 
2 *133:7 io_out[34] 41.4064 
*END

*D_NET *134 0.0311614
*CONN
*P io_out[35] O
*I *804:io_out[35] O *D picorv32_soc
*CAP
1 io_out[35] 0.000145724
2 *804:io_out[35] 0.015435
3 *134:9 0.0155807
*RES
1 *804:io_out[35] *134:9 47.2532 
2 *134:9 io_out[35] 3.85963 
*END

*D_NET *135 0.0442347
*CONN
*P io_out[36] O
*I *804:io_out[36] O *D picorv32_soc
*CAP
1 io_out[36] 0.00500367
2 *804:io_out[36] 0.0135824
3 *135:7 0.0185861
4 io_out[36] io_out[37] 0.00706248
*RES
1 *804:io_out[36] *135:7 43.935 
2 *135:7 io_out[36] 17.4725 
*END

*D_NET *136 0.0708925
*CONN
*P io_out[37] O
*I *804:io_out[37] O *D picorv32_soc
*CAP
1 io_out[37] 0.00797999
2 *804:io_out[37] 0.0136888
3 *136:7 0.0216688
4 io_out[36] io_out[37] 0.00706248
5 *98:9 io_out[37] 0.0204925
*RES
1 *804:io_out[37] *136:7 44.0791 
2 *136:7 io_out[37] 48.5441 
*END

*D_NET *137 0.306423
*CONN
*P io_out[3] O
*I *804:io_out[3] O *D picorv32_soc
*CAP
1 io_out[3] 0.0310062
2 *804:io_out[3] 0.000495219
3 *137:21 0.0310062
4 *137:19 0.0145913
5 *137:17 0.0145913
6 *137:15 0.0557357
7 *137:13 0.0557357
8 *137:11 0.00278185
9 *137:9 0.00327707
10 *137:11 *738:23 0.0100273
11 *137:11 *761:21 0
12 *137:15 *802:Di0[0] 0.000473504
13 *137:15 *138:27 0.0105864
14 *137:19 *696:5 0
15 io_oeb[1] *137:15 0
16 *61:13 *137:15 0
17 *61:17 *137:11 0.00608844
18 *63:13 *137:15 0.0700267
*RES
1 *804:io_out[3] *137:9 4.303 
2 *137:9 *137:11 125.196 
3 *137:11 *137:13 3.41 
4 *137:13 *137:15 228.715 
5 *137:15 *137:17 3.41 
6 *137:17 *137:19 300.661 
7 *137:19 *137:21 3.41 
8 *137:21 io_out[3] 93.3859 
*END

*D_NET *138 0.394487
*CONN
*P io_out[4] O
*I *804:io_out[4] O *D picorv32_soc
*CAP
1 io_out[4] 5.92295e-05
2 *804:io_out[4] 0.0126515
3 *138:29 0.0138167
4 *138:27 0.126009
5 *138:11 0.119231
6 *138:7 0.0196308
7 *138:11 *139:17 0.000151879
8 *138:11 *682:10 0.000151879
9 *138:11 *748:15 0.00307126
10 *138:11 *749:15 0.00273759
11 *138:11 *750:15 0.00273759
12 *138:11 *751:15 0.00612467
13 *138:27 *651:16 0
14 io_oeb[1] *138:27 0.00637301
15 *52:19 *138:27 0.000801216
16 *62:25 *138:27 0.000284756
17 *63:9 *138:29 0.0366519
18 *63:13 *138:27 0.015841
19 *63:17 *138:11 0.000211218
20 *63:27 *138:7 0
21 *90:11 *138:11 0
22 *99:23 *138:29 0.0110616
23 *100:11 *138:11 0.00630216
24 *137:15 *138:27 0.0105864
*RES
1 *804:io_out[4] *138:7 40.1875 
2 *138:7 *138:11 27.1669 
3 *138:11 *138:27 44.1821 
4 *138:27 *138:29 449.411 
5 *138:29 io_out[4] 3.5416 
*END

*D_NET *139 0.435062
*CONN
*P io_out[5] O
*I *804:io_out[5] O *D picorv32_soc
*CAP
1 io_out[5] 0.00207981
2 *804:io_out[5] 0.0148524
3 *139:33 0.0121982
4 *139:31 0.0101184
5 *139:29 0.0429447
6 *139:27 0.0430204
7 *139:21 0.0239518
8 *139:19 0.0238761
9 *139:17 0.00227641
10 *139:15 0.00227641
11 *139:13 0.0148524
12 *139:13 *682:10 0.000273383
13 *139:13 *748:15 0.00044159
14 *139:13 *749:15 0.000386782
15 *139:13 *750:15 0.000190945
16 *139:13 *751:15 0.000420283
17 *139:17 *682:10 0.0141941
18 *139:17 *748:15 0.000255816
19 *139:21 *646:9 0
20 *139:21 *647:9 0
21 *139:21 *648:9 0.00474206
22 *139:21 *651:16 0.000984778
23 *139:21 *652:9 0.00146831
24 *139:21 *653:9 8.08591e-05
25 *139:29 *646:17 0.0206238
26 *139:29 *647:17 2.12005e-05
27 *139:29 *691:11 0.00290463
28 *52:19 *139:33 0.000596758
29 *63:9 *139:33 0.0487591
30 *63:17 *139:17 0.0135107
31 *63:27 *139:13 0.00150199
32 *79:10 *139:21 0.0835715
33 *79:10 *139:29 0.00243056
34 *79:18 *139:29 0
35 *100:7 *139:13 0
36 *100:11 *139:13 0.000270221
37 *100:11 *139:17 0.00261602
38 *100:23 *139:33 0.0422176
39 *138:11 *139:17 0.000151879
*RES
1 *804:io_out[5] *139:13 48.8098 
2 *139:13 *139:15 3.41 
3 *139:15 *139:17 174.375 
4 *139:17 *139:19 3.41 
5 *139:19 *139:21 129.839 
6 *139:21 *139:27 9.0975 
7 *139:27 *139:29 886.857 
8 *139:29 *139:31 4.5 
9 *139:31 *139:33 622.509 
10 *139:33 io_out[5] 45.5052 
*END

*D_NET *140 0.342661
*CONN
*P io_out[6] O
*I *804:io_out[6] O *D picorv32_soc
*CAP
1 io_out[6] 0.00274543
2 *804:io_out[6] 0.00176425
3 *140:13 0.0738986
4 *140:11 0.0711532
5 *140:9 0.0289135
6 *140:7 0.0306778
7 *140:13 *802:A0[2] 0.0199067
8 *140:13 *802:A0[7] 0
9 *140:13 *646:29 0.00123825
10 *140:13 *647:33 0.00189882
11 *140:13 *657:8 0
12 *140:13 *658:8 0
13 *140:13 *658:10 0.0306578
14 *140:13 *659:16 0.00070718
15 *140:13 *664:28 0.000345474
16 *140:13 *682:8 0
17 *140:13 *686:16 0.00679897
18 *140:13 *687:16 0
19 io_oeb[6] *140:13 2.3494e-05
20 *34:9 *140:9 0.0379466
21 *35:9 *140:9 0
22 *64:11 io_out[6] 0.00262958
23 *64:13 *140:13 0.0302668
24 *102:19 *140:13 0.00108845
*RES
1 *804:io_out[6] *140:7 7.7575 
2 *140:7 *140:9 117.766 
3 *140:9 *140:11 3.41 
4 *140:11 *140:13 318.149 
5 *140:13 io_out[6] 18.2457 
*END

*D_NET *141 0.378452
*CONN
*P io_out[7] O
*I *804:io_out[7] O *D picorv32_soc
*CAP
1 io_out[7] 0.0949653
2 *804:io_out[7] 0.0125678
3 *141:11 0.0949653
4 *141:9 0.0326667
5 *141:7 0.0452345
6 *141:9 *747:5 0.00348238
7 *141:9 *752:27 0.00503226
8 *141:9 *753:27 0.00520604
9 *141:9 *754:31 0.00337986
10 *141:9 *755:13 0.00278803
11 *141:9 *757:13 0.00575941
12 *141:9 *758:13 0.00345201
13 *141:9 *780:13 0.00311529
14 *141:9 *781:13 0.0048007
15 *141:9 *782:13 0.005745
16 *32:9 *141:9 0
17 *33:9 *141:9 0.055291
*RES
1 *804:io_out[7] *141:7 38.0255 
2 *141:7 *141:9 142.695 
3 *141:9 *141:11 3.41 
4 *141:11 io_out[7] 287.858 
*END

*D_NET *142 0.360345
*CONN
*P io_out[8] O
*I *804:io_out[8] O *D picorv32_soc
*CAP
1 io_out[8] 0.102689
2 *804:io_out[8] 0.00436221
3 *142:11 0.102689
4 *142:9 0.0429279
5 *142:7 0.0472901
6 *65:9 *142:9 0.0603858
7 *109:9 *142:9 0
*RES
1 *804:io_out[8] *142:7 15.1083 
2 *142:7 *142:9 178.49 
3 *142:9 *142:11 3.41 
4 *142:11 io_out[8] 310.775 
*END

*D_NET *143 0.356861
*CONN
*P io_out[9] O
*I *804:io_out[9] O *D picorv32_soc
*CAP
1 io_out[9] 0.10587
2 *804:io_out[9] 0.000930643
3 *143:11 0.10587
4 *143:9 0.0620163
5 *143:7 0.0629469
6 *143:9 *740:10 0.00928932
7 *143:9 *741:13 0.00343673
8 *143:9 *769:15 0.00650163
9 *67:9 *143:9 0
10 *69:9 *143:9 0
11 *73:9 *143:9 0
*RES
1 *804:io_out[9] *143:7 5.45137 
2 *143:7 *143:9 214.392 
3 *143:9 *143:11 3.41 
4 *143:11 io_out[9] 320.432 
*END

*D_NET *529 0.450448
*CONN
*P user_irq[0] O
*I *804:irq_out[0] O *D picorv32_soc
*CAP
1 user_irq[0] 0.00153426
2 *804:irq_out[0] 0.0128613
3 *529:32 0.0093215
4 *529:30 0.00778724
5 *529:28 0.0800206
6 *529:26 0.0928819
7 user_irq[0] *530:18 0
8 *529:26 *545:19 0.00134935
9 *529:26 *609:17 0.000238759
10 *529:26 *727:24 3.99154e-05
11 *529:28 *803:cpu_mem_wdata[14] 0.00103925
12 *529:28 *551:19 0.00317913
13 *529:28 *562:27 0.178261
14 *529:28 *584:19 0.0253974
15 *529:28 *588:35 0.00173525
16 *529:28 *650:6 0.0162112
17 *529:28 *681:27 0.0124854
18 *529:28 *682:14 0.00105871
19 *529:28 *687:30 0
20 *529:28 *703:8 0.00108993
21 *529:28 *705:8 0.000318124
22 *529:28 *706:8 0.000338449
23 *529:28 *738:15 0
24 *529:28 *739:13 0.00135428
25 *529:28 *748:13 0.000575815
26 *529:28 *750:11 0.000650335
27 *529:28 *751:11 0
28 *529:28 *770:29 0.000719236
29 *529:32 *530:18 0
*RES
1 *804:irq_out[0] *529:26 46.4178 
2 *529:26 *529:28 2254.54 
3 *529:28 *529:30 4.5 
4 *529:30 *529:32 160.42 
5 *529:32 user_irq[0] 31.4375 
*END

*D_NET *530 0.312393
*CONN
*P user_irq[1] O
*I *804:irq_out[1] O *D picorv32_soc
*CAP
1 user_irq[1] 0.000393665
2 *804:irq_out[1] 0.00194424
3 *530:18 0.0139732
4 *530:16 0.0135795
5 *530:14 0.127773
6 *530:12 0.129717
7 user_irq[1] user_irq[2] 0.000806845
8 *530:12 *792:33 4.0438e-05
9 *530:14 *540:29 0
10 *530:14 *699:9 0
11 *530:14 *717:9 0
12 *530:14 *719:11 0.0241646
13 user_irq[0] *530:18 0
14 *106:13 *530:14 0
15 *529:32 *530:18 0
*RES
1 *804:irq_out[1] *530:12 16.3102 
2 *530:12 *530:14 385.64 
3 *530:14 *530:16 3.41 
4 *530:16 *530:18 278.804 
5 *530:18 user_irq[1] 9.79749 
*END

*D_NET *531 0.420011
*CONN
*P user_irq[2] O
*I *804:irq_out[2] O *D picorv32_soc
*CAP
1 user_irq[2] 0.00278473
2 *804:irq_out[2] 0.00651184
3 *531:18 0.0127662
4 *531:16 0.00998144
5 *531:14 0.0779022
6 *531:12 0.0844141
7 *531:12 *803:cpu_mem_addr[7] 0.00313843
8 *531:12 *792:33 4.0438e-05
9 *531:14 *803:cpu_mem_wdata[24] 0.00232047
10 *531:14 *803:cpu_mem_wdata[25] 0
11 *531:14 *685:18 0
12 *531:14 *704:11 0
13 *531:14 *708:11 0
14 *531:14 *709:11 0
15 *531:14 *724:14 0.0281225
16 *531:14 *787:22 0
17 *531:14 *789:17 0
18 *531:14 *790:17 0
19 user_irq[1] user_irq[2] 0.000806845
20 *41:5 *531:14 0.191222
*RES
1 *804:irq_out[2] *531:12 29.3073 
2 *531:12 *531:14 360.416 
3 *531:14 *531:16 3.41 
4 *531:16 *531:18 205.339 
5 *531:18 user_irq[2] 16.8817 
*END

*D_NET *540 0.226868
*CONN
*P wb_clk_i I
*I *802:CLK I *D DFFRAM512x32
*I *804:clk I *D picorv32_soc
*I *803:clk I *D memory_macro
*CAP
1 wb_clk_i 0.00485176
2 *802:CLK 0
3 *804:clk 0
4 *803:clk 3.723e-05
5 *540:44 0.024811
6 *540:37 0.0275944
7 *540:29 0.0341995
8 *540:27 0.0458931
9 *540:23 0.0147146
10 *540:11 0.00512653
11 *540:11 *803:wbs_cyc_i 0.00498377
12 *540:23 *803:wbs_cyc_i 0.000394731
13 *540:37 *763:23 0.000105638
14 *540:44 *804:rst_n 4.0438e-05
15 *540:44 *763:23 0.0100398
16 *61:13 *540:44 0
17 *79:10 *540:44 0.0540759
18 *530:14 *540:29 0
*RES
1 wb_clk_i *540:11 32.4832 
2 *540:11 *803:clk 4.07964 
3 *540:11 *540:23 4.50197 
4 *540:23 *540:27 49.2663 
5 *540:27 *540:29 88.4007 
6 *540:29 *540:37 14.2131 
7 *540:37 *804:clk 3.41 
8 *540:37 *540:44 112.383 
9 *540:44 *802:CLK 3.41 
*END

*D_NET *541 0.12196
*CONN
*P wb_rst_i I
*I *803:rst_n I *D memory_macro
*I *804:rst_n I *D picorv32_soc
*CAP
1 wb_rst_i 0.00794303
2 *803:rst_n 3.723e-05
3 *804:rst_n 0.00486626
4 *541:51 0.039612
5 *541:49 0.0468791
6 *541:39 0.0125571
7 *541:37 0.00832946
8 *541:37 wbs_dat_o[1] 0.000565032
9 *541:37 *565:17 0.000814972
10 *541:37 *568:9 9.16335e-05
11 *541:37 *568:11 0
12 *541:37 *598:17 4.98422e-05
13 *541:37 *601:33 0
14 *541:37 *642:21 4.98422e-05
15 *541:37 *643:11 2.87892e-05
16 *541:39 *569:9 6.73972e-05
17 *541:49 *803:wbs_cyc_i 2.74588e-05
18 *540:44 *804:rst_n 4.0438e-05
*RES
1 wb_rst_i *541:37 49.6842 
2 *541:37 *541:39 6.95536 
3 *541:39 *541:49 48.6055 
4 *541:49 *541:51 104.4 
5 *541:51 *804:rst_n 25.046 
6 *541:39 *803:rst_n 0.669643 
*END

*D_NET *542 0.0338066
*CONN
*P wbs_ack_o O
*I *803:wbs_ack_o O *D memory_macro
*CAP
1 wbs_ack_o 0.00349577
2 *803:wbs_ack_o 0.00349577
3 wbs_ack_o *803:wbs_dat_i[5] 7.4607e-05
4 wbs_ack_o *576:17 0.000172806
5 wbs_ack_o *633:25 0.000351974
6 wbs_ack_o *644:15 0.0132092
7 wbs_ack_o *645:23 0.0130064
*RES
1 *803:wbs_ack_o wbs_ack_o 43.6535 
*END

*D_NET *543 0.04896
*CONN
*P wbs_adr_i[0] I
*I *803:wbs_adr_i[0] I *D memory_macro
*CAP
1 wbs_adr_i[0] 0.00452689
2 *803:wbs_adr_i[0] 7.6253e-05
3 *543:15 0.00460315
4 *543:15 wbs_dat_o[8] 5.46816e-05
5 *543:15 wbs_dat_o[9] 0.00232311
6 *543:15 *803:wbs_cyc_i 0.0145373
7 *543:15 *803:wbs_stb_i 0.000901034
8 *543:15 *803:wbs_we_i 0.00119239
9 *543:15 *601:35 0.000853089
10 *543:15 *608:9 0.0198921
*RES
1 wbs_adr_i[0] *543:15 49.9728 
2 *543:15 *803:wbs_adr_i[0] 4.68679 
*END

*D_NET *544 0.177144
*CONN
*P wbs_adr_i[10] I
*I *803:wbs_adr_i[10] I *D memory_macro
*CAP
1 wbs_adr_i[10] 0.00023476
2 *803:wbs_adr_i[10] 0.0237441
3 *544:55 0.047731
4 *544:11 0.0269408
5 *544:9 0.00318861
6 *803:wbs_adr_i[10] *803:wbs_dat_i[10] 5.40377e-05
7 *803:wbs_adr_i[10] *605:39 0.00965561
8 *803:wbs_adr_i[10] *606:35 0.002087
9 *803:wbs_adr_i[10] *622:17 4.98422e-05
10 *544:11 *572:13 0.00289911
11 *544:11 *577:11 0.00219441
12 *544:11 *582:11 0.00226485
13 *544:11 *606:11 0.0196994
14 *544:11 *610:9 0.000233689
15 *544:11 *617:9 0.000336737
16 *544:11 *618:9 0.000424028
17 *544:11 *621:9 3.32631e-05
18 *544:11 *634:27 0.00855069
19 *544:55 wbs_dat_o[21] 3.42164e-05
20 *544:55 *803:wbs_adr_i[20] 0.000144849
21 *544:55 *580:11 0.000369166
22 *544:55 *600:25 0.00714936
23 *544:55 *604:11 0.000657393
24 *544:55 *605:39 0.0080239
25 *544:55 *606:35 0.000311995
26 *544:55 *611:31 0.0101316
*RES
1 wbs_adr_i[10] *544:9 6.67857 
2 *544:9 *544:11 185.768 
3 *544:11 *544:55 49.8045 
4 *544:55 *803:wbs_adr_i[10] 27.0897 
*END

*D_NET *545 0.282975
*CONN
*P wbs_adr_i[11] I
*I *803:wbs_adr_i[11] I *D memory_macro
*CAP
1 wbs_adr_i[11] 0.0111733
2 *803:wbs_adr_i[11] 0.0111297
3 *545:19 0.0276252
4 *545:17 0.0276687
5 *803:wbs_adr_i[11] *578:11 0.000103169
6 *803:wbs_adr_i[11] *581:11 0.000276371
7 *803:wbs_adr_i[11] *622:17 0.000461193
8 *545:17 wbs_dat_o[10] 0
9 *545:17 *571:11 0.000144966
10 *545:17 *572:13 0.000140137
11 *545:17 *788:25 0.000392551
12 *545:19 *803:cpu_mem_addr[2] 0
13 *545:19 *803:cpu_mem_wdata[2] 0
14 *545:19 *546:19 0.091852
15 *545:19 *552:21 0.0172104
16 *545:19 *609:17 0.0934477
17 *545:19 *685:18 0
18 *529:26 *545:19 0.00134935
*RES
1 wbs_adr_i[11] *545:17 45.9978 
2 *545:17 *545:19 149.369 
3 *545:19 *803:wbs_adr_i[11] 44.2454 
*END

*D_NET *546 0.278187
*CONN
*P wbs_adr_i[12] I
*I *803:wbs_adr_i[12] I *D memory_macro
*CAP
1 wbs_adr_i[12] 0.0112047
2 *803:wbs_adr_i[12] 9.27699e-05
3 *546:31 0.0130315
4 *546:19 0.0321955
5 *546:17 0.0304615
6 *546:17 *571:11 5.11566e-05
7 *546:17 *572:13 4.73891e-05
8 *546:19 *803:cpu_mem_wdata[2] 0
9 *546:19 *803:cpu_mem_wdata[3] 0
10 *546:19 *614:17 0.0886631
11 *546:19 *685:18 0
12 *546:19 *756:16 6.63171e-06
13 *546:19 *784:27 0.00428785
14 *546:31 *803:wbs_dat_i[12] 0.000616845
15 *546:31 *552:21 0.0012486
16 *546:31 *614:17 0.00279655
17 *546:31 *622:17 0.000598446
18 *546:31 *625:9 0.000125261
19 *546:31 *685:18 0
20 *546:31 *752:25 9.2692e-05
21 *546:31 *753:21 9.2692e-05
22 *546:31 *784:27 0.000721722
23 *545:19 *546:19 0.091852
*RES
1 wbs_adr_i[12] *546:17 45.7472 
2 *546:17 *546:19 151.459 
3 *546:19 *546:31 48.6954 
4 *546:31 *803:wbs_adr_i[12] 4.68679 
*END

*D_NET *547 0.206028
*CONN
*P wbs_adr_i[13] I
*I *803:wbs_adr_i[13] I *D memory_macro
*CAP
1 wbs_adr_i[13] 0.0013114
2 *803:wbs_adr_i[13] 0.000771136
3 *547:27 0.0339
4 *547:25 0.034285
5 *547:19 0.00246754
6 *803:wbs_adr_i[13] *581:11 5.85882e-05
7 *803:wbs_adr_i[13] *622:17 9.51694e-05
8 *547:19 *580:11 0.000372524
9 *547:19 *604:11 0.00130277
10 *547:19 *635:33 0.00172701
11 *547:19 *643:11 0.000820865
12 *547:25 wbs_dat_o[15] 0
13 *547:27 *803:wbs_dat_i[5] 0.000245544
14 *547:27 *548:19 0.104147
15 *547:27 *597:25 0.0154478
16 *547:27 *602:37 0.00907514
*RES
1 wbs_adr_i[13] *547:19 46.8674 
2 *547:19 *547:25 9.31727 
3 *547:25 *547:27 162.629 
4 *547:27 *803:wbs_adr_i[13] 12.9873 
*END

*D_NET *548 0.270855
*CONN
*P wbs_adr_i[14] I
*I *803:wbs_adr_i[14] I *D memory_macro
*CAP
1 wbs_adr_i[14] 0.0015886
2 *803:wbs_adr_i[14] 0.000714525
3 *548:19 0.0196187
4 *548:17 0.0204927
5 *803:wbs_adr_i[14] *581:11 5.85882e-05
6 *803:wbs_adr_i[14] *622:17 9.51694e-05
7 *548:17 wbs_dat_o[13] 0
8 *548:17 *571:11 5.11642e-05
9 *548:17 *572:13 4.73953e-05
10 *548:19 *553:19 0.101601
11 *548:19 *597:25 0.0171565
12 *548:19 *600:27 0.00217216
13 *548:19 *615:17 0.00238904
14 *548:19 *641:37 0.000722117
15 *547:27 *548:19 0.104147
*RES
1 wbs_adr_i[14] *548:17 15.0656 
2 *548:17 *548:19 178.052 
3 *548:19 *803:wbs_adr_i[14] 12.8808 
*END

*D_NET *549 0.219051
*CONN
*P wbs_adr_i[15] I
*I *803:wbs_adr_i[15] I *D memory_macro
*CAP
1 wbs_adr_i[15] 0.000179715
2 *803:wbs_adr_i[15] 0.000525959
3 *549:37 0.00664453
4 *549:33 0.0553139
5 *549:25 0.0582004
6 *549:11 0.0105541
7 *549:9 0.00172872
8 *549:11 wbs_dat_o[7] 0.00199791
9 *549:11 *590:15 0.000252794
10 *549:11 *602:11 0.0136205
11 *549:11 *605:11 0.0136142
12 *549:11 *620:25 0.000515104
13 *549:25 *558:9 0.000186729
14 *549:25 *591:9 0
15 *549:25 *635:31 0.000327739
16 *549:25 *636:33 0.000332568
17 *549:33 *612:27 0.0119746
18 *549:37 *803:wbs_adr_i[20] 0.00558892
19 *549:37 *560:11 0.00256148
20 *549:37 *580:11 0.00820436
21 *549:37 *589:27 0.00556167
22 *549:37 *590:17 0.00555387
23 *549:37 *627:9 0.0156112
*RES
1 wbs_adr_i[15] *549:9 6.07143 
2 *549:9 *549:11 127.857 
3 *549:11 *549:25 40.4877 
4 *549:25 *549:33 41.9861 
5 *549:33 *549:37 46.0844 
6 *549:37 *803:wbs_adr_i[15] 7.95536 
*END

*D_NET *550 0.331275
*CONN
*P wbs_adr_i[16] I
*I *803:wbs_adr_i[16] I *D memory_macro
*CAP
1 wbs_adr_i[16] 0.0112199
2 *803:wbs_adr_i[16] 0.0104204
3 *550:19 0.033971
4 *550:17 0.0347705
5 *803:wbs_adr_i[16] *583:11 2.08716e-05
6 *803:wbs_adr_i[16] *622:17 4.98422e-05
7 *550:17 wbs_dat_o[15] 0
8 *550:17 *571:11 5.11566e-05
9 *550:17 *572:13 4.73891e-05
10 *550:19 *803:cpu_mem_wdata[3] 0
11 *550:19 *551:19 0.121611
12 *550:19 *584:19 0.000287943
13 *550:19 *614:17 0.118825
*RES
1 wbs_adr_i[16] *550:17 45.5341 
2 *550:17 *550:19 196.645 
3 *550:19 *803:wbs_adr_i[16] 43.2772 
*END

*D_NET *551 0.347068
*CONN
*P wbs_adr_i[17] I
*I *803:wbs_adr_i[17] I *D memory_macro
*CAP
1 wbs_adr_i[17] 0.0112735
2 *803:wbs_adr_i[17] 0.0103429
3 *551:19 0.0350927
4 *551:17 0.0360232
5 *803:wbs_adr_i[17] *585:11 1.56785e-05
6 *803:wbs_adr_i[17] *622:17 4.98422e-05
7 *551:17 *571:11 5.11566e-05
8 *551:17 *572:13 4.73891e-05
9 *551:17 *584:15 0
10 *551:19 *584:19 0.129382
11 *529:28 *551:19 0.00317913
12 *550:19 *551:19 0.121611
*RES
1 wbs_adr_i[17] *551:17 45.4276 
2 *551:17 *551:19 206.014 
3 *551:19 *803:wbs_adr_i[17] 43.1707 
*END

*D_NET *552 0.296084
*CONN
*P wbs_adr_i[18] I
*I *803:wbs_adr_i[18] I *D memory_macro
*CAP
1 wbs_adr_i[18] 0.0103236
2 *803:wbs_adr_i[18] 0.0109792
3 *552:21 0.109385
4 *552:17 0.10873
5 *803:wbs_adr_i[18] *585:11 0.000578559
6 *803:wbs_adr_i[18] *593:25 0.000434947
7 *803:wbs_adr_i[18] *622:9 0.00208337
8 *803:wbs_adr_i[18] *625:9 0.000460595
9 *552:17 wbs_dat_o[17] 0.000448348
10 *552:17 *571:11 0.000144966
11 *552:17 *572:13 0.000140137
12 *552:17 *577:29 0.00260759
13 *552:21 *803:cpu_mem_wdata[23] 0.000472881
14 *552:21 *609:17 0.0162463
15 *552:21 *685:18 0.0089622
16 *552:21 *789:17 0.0026326
17 *552:21 *790:17 0.00299485
18 *545:19 *552:21 0.0172104
19 *546:31 *552:21 0.0012486
*RES
1 wbs_adr_i[18] *552:17 43.1809 
2 *552:17 *552:21 24.5145 
3 *552:21 *803:wbs_adr_i[18] 43.6429 
*END

*D_NET *553 0.27748
*CONN
*P wbs_adr_i[19] I
*I *803:wbs_adr_i[19] I *D memory_macro
*CAP
1 wbs_adr_i[19] 0.00229159
2 *803:wbs_adr_i[19] 0.000688306
3 *553:19 0.0355412
4 *553:17 0.0371445
5 *803:wbs_adr_i[19] *586:15 2.09057e-05
6 *803:wbs_adr_i[19] *622:9 9.51694e-05
7 *553:17 *803:wbs_adr_i[20] 0.000225855
8 *553:17 *572:29 0.00012975
9 *553:17 *580:11 0.00189545
10 *553:17 *582:25 0
11 *553:17 *604:11 0.00342901
12 *553:17 *635:33 0.000423238
13 *553:17 *641:37 5.13004e-05
14 *553:19 *597:25 0.0231224
15 *553:19 *597:27 0
16 *553:19 *600:27 0.0075186
17 *553:19 *615:17 0.063302
18 *553:19 *629:13 0
19 *548:19 *553:19 0.101601
*RES
1 wbs_adr_i[19] *553:17 23.1891 
2 *553:17 *553:19 219.13 
3 *553:19 *803:wbs_adr_i[19] 12.7742 
*END

*D_NET *554 0.0767437
*CONN
*P wbs_adr_i[1] I
*I *803:wbs_adr_i[1] I *D memory_macro
*CAP
1 wbs_adr_i[1] 0.000488032
2 *803:wbs_adr_i[1] 0.000268065
3 *554:11 0.00515729
4 *554:9 0.00537725
5 *554:9 *640:9 0
6 *554:11 *569:11 0.00110256
7 *554:11 *573:11 0.000351788
8 *554:11 *581:11 0.000437305
9 *554:11 *583:11 0.000800039
10 *554:11 *587:11 0.0296907
11 *554:11 *630:21 0.00519577
12 *554:11 *640:13 0.0278749
*RES
1 wbs_adr_i[1] *554:9 12.9189 
2 *554:9 *554:11 47.611 
3 *554:11 *803:wbs_adr_i[1] 7.7225 
*END

*D_NET *555 0.317936
*CONN
*P wbs_adr_i[20] I
*I *803:wbs_adr_i[20] I *D memory_macro
*CAP
1 wbs_adr_i[20] 0.0798123
2 *803:wbs_adr_i[20] 0.0798123
3 *803:wbs_adr_i[20] wbs_dat_o[7] 5.85882e-05
4 *803:wbs_adr_i[20] *803:wbs_dat_i[5] 0.00287074
5 *803:wbs_adr_i[20] *803:wbs_dat_i[6] 0.000891009
6 *803:wbs_adr_i[20] *560:11 0.0287818
7 *803:wbs_adr_i[20] *580:11 0.0190918
8 *803:wbs_adr_i[20] *582:25 0.000144849
9 *803:wbs_adr_i[20] *585:11 0.016773
10 *803:wbs_adr_i[20] *586:15 0.0281911
11 *803:wbs_adr_i[20] *593:19 0.00231544
12 *803:wbs_adr_i[20] *595:25 0.032516
13 *803:wbs_adr_i[20] *598:19 0.00105331
14 *803:wbs_adr_i[20] *604:11 0.000917094
15 *803:wbs_adr_i[20] *618:9 9.61096e-05
16 *803:wbs_adr_i[20] *622:9 0.000369687
17 *803:wbs_adr_i[20] *627:9 0.0158236
18 *803:wbs_adr_i[20] *635:31 0.000583236
19 *803:wbs_adr_i[20] *642:29 0.00187468
20 *544:55 *803:wbs_adr_i[20] 0.000144849
21 *549:37 *803:wbs_adr_i[20] 0.00558892
22 *553:17 *803:wbs_adr_i[20] 0.000225855
*RES
1 wbs_adr_i[20] *803:wbs_adr_i[20] 46.6634 
*END

*D_NET *556 0.329385
*CONN
*P wbs_adr_i[21] I
*I *803:wbs_adr_i[21] I *D memory_macro
*CAP
1 wbs_adr_i[21] 0.000839908
2 *803:wbs_adr_i[21] 0.000129672
3 *556:11 0.019118
4 *556:9 0.0198283
5 *556:9 *582:25 2.47801e-05
6 *556:9 *635:31 6.83964e-05
7 *556:11 *557:11 0.145793
8 *556:11 *565:19 0.000797791
9 *556:11 *578:11 0.0766439
10 *556:11 *581:11 0.0225682
11 *556:11 *583:11 0.0017948
12 *556:11 *593:25 0.0394295
13 *556:11 *622:9 0.00234847
14 *556:11 *633:17 0
*RES
1 wbs_adr_i[21] *556:9 16.2857 
2 *556:9 *556:11 1387.52 
3 *556:11 *803:wbs_adr_i[21] 6.53571 
*END

*D_NET *557 0.363989
*CONN
*P wbs_adr_i[22] I
*I *803:wbs_adr_i[22] I *D memory_macro
*CAP
1 wbs_adr_i[22] 0.000834612
2 *803:wbs_adr_i[22] 0.000147883
3 *557:11 0.0185091
4 *557:9 0.0191958
5 *557:11 *558:11 0.151389
6 *557:11 *581:11 0.0206009
7 *557:11 *583:11 0.00206466
8 *557:11 *593:25 0.00285816
9 *557:11 *622:9 0.00259596
10 *557:11 *633:17 0
11 *556:11 *557:11 0.145793
*RES
1 wbs_adr_i[22] *557:9 15.7857 
2 *557:9 *557:11 1438.86 
3 *557:11 *803:wbs_adr_i[22] 6.83929 
*END

*D_NET *558 0.37864
*CONN
*P wbs_adr_i[23] I
*I *803:wbs_adr_i[23] I *D memory_macro
*CAP
1 wbs_adr_i[23] 0.000795345
2 *803:wbs_adr_i[23] 0.000151464
3 *558:11 0.0191475
4 *558:9 0.0197914
5 *558:11 *559:11 0.15699
6 *558:11 *560:11 0.000222214
7 *558:11 *583:11 0.0252122
8 *558:11 *593:25 0.00217879
9 *558:11 *595:27 0.0023796
10 *558:11 *633:17 0.000196196
11 *549:25 *558:9 0.000186729
12 *557:11 *558:11 0.151389
*RES
1 wbs_adr_i[23] *558:9 15.8929 
2 *558:9 *558:11 1491.43 
3 *558:11 *803:wbs_adr_i[23] 7.14286 
*END

*D_NET *559 0.38983
*CONN
*P wbs_adr_i[24] I
*I *803:wbs_adr_i[24] I *D memory_macro
*CAP
1 wbs_adr_i[24] 0.000866561
2 *803:wbs_adr_i[24] 0.000166317
3 *559:11 0.0204355
4 *559:9 0.0211357
5 *559:9 *606:35 0.000148707
6 *559:9 *607:15 0.000107754
7 *559:9 *643:27 0
8 *559:11 *560:11 0.000222214
9 *559:11 *561:11 0.16111
10 *559:11 *568:11 0.000146509
11 *559:11 *583:11 0.0229664
12 *559:11 *593:25 0.000842691
13 *559:11 *595:27 0.00413711
14 *559:11 *633:17 0.000554186
15 *558:11 *559:11 0.15699
*RES
1 wbs_adr_i[24] *559:9 16.4107 
2 *559:9 *559:11 1544 
3 *559:11 *803:wbs_adr_i[24] 7.44643 
*END

*D_NET *560 0.42736
*CONN
*P wbs_adr_i[25] I
*I *803:wbs_adr_i[25] I *D memory_macro
*CAP
1 wbs_adr_i[25] 0.000668302
2 *803:wbs_adr_i[25] 0.000302744
3 *560:11 0.0463396
4 *560:9 0.0467052
5 *560:9 *605:39 0
6 *560:11 *803:wbs_dat_i[5] 4.98422e-05
7 *560:11 *803:wbs_dat_i[6] 0.00443925
8 *560:11 *561:11 0.000275964
9 *560:11 *563:11 0.000359716
10 *560:11 *564:11 0.000464189
11 *560:11 *566:11 0.000533983
12 *560:11 *567:11 0.0640623
13 *560:11 *568:11 0.00122292
14 *560:11 *569:11 0.00276399
15 *560:11 *573:11 0.00527757
16 *560:11 *574:11 0.0111092
17 *560:11 *580:11 0.0255819
18 *560:11 *586:15 0.135909
19 *560:11 *593:19 0.00674855
20 *560:11 *595:27 0.0387942
21 *560:11 *602:37 9.61175e-05
22 *560:11 *622:9 0
23 *560:11 *627:9 0
24 *560:11 *642:29 0.00386728
25 *803:wbs_adr_i[20] *560:11 0.0287818
26 *549:37 *560:11 0.00256148
27 *558:11 *560:11 0.000222214
28 *559:11 *560:11 0.000222214
*RES
1 wbs_adr_i[25] *560:9 12.1154 
2 *560:9 *560:11 280.458 
3 *560:11 *803:wbs_adr_i[25] 8.32964 
*END

*D_NET *561 0.418693
*CONN
*P wbs_adr_i[26] I
*I *803:wbs_adr_i[26] I *D memory_macro
*CAP
1 wbs_adr_i[26] 0.000739531
2 *803:wbs_adr_i[26] 0.000167936
3 *561:11 0.0234131
4 *561:9 0.0239847
5 *561:9 *588:27 9.16344e-05
6 *561:11 *563:11 0.172393
7 *561:11 *568:11 0.000989095
8 *561:11 *585:11 0.027509
9 *561:11 *593:25 0
10 *561:11 *595:27 0.00801876
11 *561:11 *625:9 0
12 *561:11 *632:13 0
13 *559:11 *561:11 0.16111
14 *560:11 *561:11 0.000275964
*RES
1 wbs_adr_i[26] *561:9 14.875 
2 *561:9 *561:11 1651.61 
3 *561:11 *803:wbs_adr_i[26] 7.75 
*END

*D_NET *562 0.453712
*CONN
*P wbs_adr_i[27] I
*I *803:wbs_adr_i[27] I *D memory_macro
*CAP
1 wbs_adr_i[27] 0.00129918
2 *803:wbs_adr_i[27] 4.32228e-05
3 *562:43 0.0101316
4 *562:27 0.0402255
5 *562:25 0.0413326
6 *562:13 0.0124947
7 *562:13 *578:11 0.000285799
8 *562:13 *581:11 0.0016528
9 *562:13 *601:35 0.000308183
10 *562:13 *639:9 0.00164797
11 *562:25 *584:19 8.33861e-05
12 *562:27 *584:19 0.0105378
13 *562:27 *588:35 0.129358
14 *562:27 *650:6 0.0116137
15 *562:27 *681:27 0.0134633
16 *562:27 *682:14 0.000920329
17 *562:43 *595:27 0
18 *562:43 *629:13 2.14879e-05
19 *562:43 *701:8 3.07226e-05
20 *529:28 *562:27 0.178261
*RES
1 wbs_adr_i[27] *562:13 21.5772 
2 *562:13 *562:25 45.464 
3 *562:25 *562:27 1685.7 
4 *562:27 *562:43 46.6848 
5 *562:43 *803:wbs_adr_i[27] 4.07964 
*END

*D_NET *563 0.446072
*CONN
*P wbs_adr_i[28] I
*I *803:wbs_adr_i[28] I *D memory_macro
*CAP
1 wbs_adr_i[28] 0.000675371
2 *803:wbs_adr_i[28] 0.000189309
3 *563:11 0.0246028
4 *563:9 0.0250889
5 *563:9 *625:15 0.000646754
6 *563:11 *564:11 0.185432
7 *563:11 *568:11 0.000382114
8 *563:11 *574:11 0.000190544
9 *563:11 *585:11 0.0248325
10 *563:11 *595:27 0.0112798
11 *563:11 *632:13 0
12 *560:11 *563:11 0.000359716
13 *561:11 *563:11 0.172393
*RES
1 wbs_adr_i[28] *563:9 14.9821 
2 *563:9 *563:11 1757.57 
3 *563:11 *803:wbs_adr_i[28] 8.05357 
*END

*D_NET *564 0.467371
*CONN
*P wbs_adr_i[29] I
*I *803:wbs_adr_i[29] I *D memory_macro
*CAP
1 wbs_adr_i[29] 0.00078055
2 *803:wbs_adr_i[29] 0.000204538
3 *564:11 0.0238636
4 *564:9 0.0244396
5 *564:11 *566:11 0.19102
6 *564:11 *574:11 0.000677139
7 *564:11 *586:15 0.0281086
8 *564:11 *595:27 0.0123807
9 *560:11 *564:11 0.000464189
10 *563:11 *564:11 0.185432
*RES
1 wbs_adr_i[29] *564:9 14.2679 
2 *564:9 *564:11 1810.96 
3 *564:11 *803:wbs_adr_i[29] 8.35714 
*END

*D_NET *565 0.0505587
*CONN
*P wbs_adr_i[2] I
*I *803:wbs_adr_i[2] I *D memory_macro
*CAP
1 wbs_adr_i[2] 0.0028143
2 *803:wbs_adr_i[2] 0.000484622
3 *565:19 0.00921496
4 *565:17 0.0115446
5 *803:wbs_adr_i[2] *601:35 0.00179027
6 *803:wbs_adr_i[2] *630:13 0.000973959
7 *803:wbs_adr_i[2] *639:9 0.000329827
8 *565:17 *803:wbs_dat_i[0] 7.46146e-05
9 *565:17 *576:17 5.53997e-05
10 *565:17 *587:11 0.00216612
11 *565:17 *598:17 0.00228933
12 *565:17 *601:33 0.0011609
13 *565:17 *641:15 0
14 *565:19 *568:11 0
15 *565:19 *578:11 0.00621089
16 *565:19 *581:11 0.000661292
17 *565:19 *583:11 0.00206279
18 *565:19 *601:35 0.00230715
19 *565:19 *630:21 0.00199695
20 *565:19 *633:17 0.000355733
21 *565:19 *640:13 0.00245221
22 *541:37 *565:17 0.000814972
23 *556:11 *565:19 0.000797791
*RES
1 wbs_adr_i[2] *565:17 35.2803 
2 *565:17 *565:19 252.304 
3 *565:19 *803:wbs_adr_i[2] 33.2321 
*END

*D_NET *566 0.477325
*CONN
*P wbs_adr_i[30] I
*I *803:wbs_adr_i[30] I *D memory_macro
*CAP
1 wbs_adr_i[30] 0.000839831
2 *803:wbs_adr_i[30] 0.000218941
3 *566:11 0.0243793
4 *566:9 0.0250001
5 *566:11 *567:11 0.196712
6 *566:11 *574:11 0.000914664
7 *566:11 *586:15 0.0256901
8 *566:11 *595:27 0.0114815
9 *566:11 *599:19 0.000535248
10 *560:11 *566:11 0.000533983
11 *564:11 *566:11 0.19102
*RES
1 wbs_adr_i[30] *566:9 14.375 
2 *566:9 *566:11 1863.54 
3 *566:11 *803:wbs_adr_i[30] 8.66071 
*END

*D_NET *567 0.419724
*CONN
*P wbs_adr_i[31] I
*I *803:wbs_adr_i[31] I *D memory_macro
*CAP
1 wbs_adr_i[31] 0.000807177
2 *803:wbs_adr_i[31] 0.00022735
3 *567:11 0.0549092
4 *567:9 0.055489
5 *567:9 *589:25 5.5744e-05
6 *567:11 *803:wbs_dat_i[26] 0.000274325
7 *567:11 *803:wbs_dat_i[28] 0.000225044
8 *567:11 *574:11 0.0424505
9 *567:11 *595:27 0.00314437
10 *567:11 *599:19 0.00136768
11 *560:11 *567:11 0.0640623
12 *566:11 *567:11 0.196712
*RES
1 wbs_adr_i[31] *567:9 14.0714 
2 *567:9 *567:11 1916.93 
3 *567:11 *803:wbs_adr_i[31] 8.96429 
*END

*D_NET *568 0.0966678
*CONN
*P wbs_adr_i[3] I
*I *803:wbs_adr_i[3] I *D memory_macro
*CAP
1 wbs_adr_i[3] 0.000456573
2 *803:wbs_adr_i[3] 0.000336604
3 *568:11 0.00797369
4 *568:9 0.00809365
5 *568:11 *569:11 0.00262397
6 *568:11 *573:11 0.000962059
7 *568:11 *574:11 0.0329362
8 *568:11 *586:13 0.00012546
9 *568:11 *586:15 0.00162576
10 *568:11 *587:11 0.00557729
11 *568:11 *598:19 0.00103294
12 *568:11 *630:21 0.0229735
13 *568:11 *633:17 0.00911792
14 *541:37 *568:9 9.16335e-05
15 *541:37 *568:11 0
16 *559:11 *568:11 0.000146509
17 *560:11 *568:11 0.00122292
18 *561:11 *568:11 0.000989095
19 *563:11 *568:11 0.000382114
20 *565:19 *568:11 0
*RES
1 wbs_adr_i[3] *568:9 13.25 
2 *568:9 *568:11 411.25 
3 *568:11 *803:wbs_adr_i[3] 8.96429 
*END

*D_NET *569 0.10608
*CONN
*P wbs_adr_i[4] I
*I *803:wbs_adr_i[4] I *D memory_macro
*CAP
1 wbs_adr_i[4] 0.000451629
2 *803:wbs_adr_i[4] 0.000390825
3 *569:11 0.0124045
4 *569:9 0.0124653
5 *803:wbs_adr_i[4] *593:23 6.44211e-05
6 *569:11 *570:19 0.0222578
7 *569:11 *573:11 0.0444533
8 *569:11 *579:11 0
9 *569:11 *587:11 0.000528418
10 *569:11 *588:11 0
11 *569:11 *598:19 0.00559759
12 *569:11 *635:33 0
13 *569:11 *642:29 0.00090794
14 *541:39 *569:9 6.73972e-05
15 *554:11 *569:11 0.00110256
16 *560:11 *569:11 0.00276399
17 *568:11 *569:11 0.00262397
*RES
1 wbs_adr_i[4] *569:9 12.75 
2 *569:9 *569:11 481.893 
3 *569:11 *803:wbs_adr_i[4] 9.875 
*END

*D_NET *570 0.110532
*CONN
*P wbs_adr_i[5] I
*I *803:wbs_adr_i[5] I *D memory_macro
*CAP
1 wbs_adr_i[5] 7.15071e-05
2 *803:wbs_adr_i[5] 0.00044173
3 *570:19 0.00935001
4 *570:17 0.00935246
5 *570:11 0.00428762
6 *570:9 0.00391495
7 *570:11 wbs_dat_o[7] 0.000574774
8 *570:11 *572:13 0.00238348
9 *570:11 *606:11 0.0215466
10 *570:11 *607:15 0.0199993
11 *570:11 *620:25 0.000103646
12 *570:11 *633:25 0.00404048
13 *570:11 *634:27 0.00219344
14 *570:11 *636:33 0.000105257
15 *570:11 *644:15 0.000274404
16 *570:17 *635:31 0
17 *570:19 *573:11 0.00407863
18 *570:19 *580:11 0.000171818
19 *570:19 *588:11 0.000902764
20 *570:19 *589:25 0
21 *570:19 *590:17 0
22 *570:19 *593:19 0.00255547
23 *570:19 *642:29 0.00192618
24 *569:11 *570:19 0.0222578
*RES
1 wbs_adr_i[5] *570:9 5.66071 
2 *570:9 *570:11 256.821 
3 *570:11 *570:17 15.5 
4 *570:17 *570:19 278.589 
5 *570:19 *803:wbs_adr_i[5] 10.1786 
*END

*D_NET *571 0.13541
*CONN
*P wbs_adr_i[6] I
*I *803:wbs_adr_i[6] I *D memory_macro
*CAP
1 wbs_adr_i[6] 0.00584752
2 *803:wbs_adr_i[6] 0.0413497
3 *571:11 0.0471972
4 *803:wbs_adr_i[6] *581:11 5.40377e-05
5 *803:wbs_adr_i[6] *639:9 4.98422e-05
6 *571:11 wbs_dat_o[10] 5.11566e-05
7 *571:11 wbs_dat_o[13] 5.11566e-05
8 *571:11 wbs_dat_o[15] 0.000144966
9 *571:11 wbs_dat_o[17] 0.000288541
10 *571:11 wbs_dat_o[7] 0.0198384
11 *571:11 *572:13 0.0085657
12 *571:11 *602:11 0.001105
13 *571:11 *605:11 0.00112146
14 *571:11 *607:15 0.00320093
15 *571:11 *633:25 0.00296844
16 *571:11 *641:15 0.000597074
17 *571:11 *644:15 0.00248432
18 *545:17 *571:11 0.000144966
19 *546:17 *571:11 5.11566e-05
20 *548:17 *571:11 5.11642e-05
21 *550:17 *571:11 5.11566e-05
22 *551:17 *571:11 5.11566e-05
23 *552:17 *571:11 0.000144966
*RES
1 wbs_adr_i[6] *571:11 43.9931 
2 *571:11 *803:wbs_adr_i[6] 47.6271 
*END

*D_NET *572 0.1622
*CONN
*P wbs_adr_i[7] I
*I *803:wbs_adr_i[7] I *D memory_macro
*CAP
1 wbs_adr_i[7] 0.00533732
2 *803:wbs_adr_i[7] 0.00014275
3 *572:43 0.0332652
4 *572:29 0.0366634
5 *572:13 0.0088782
6 *572:13 wbs_dat_o[10] 4.73891e-05
7 *572:13 wbs_dat_o[13] 4.73891e-05
8 *572:13 wbs_dat_o[15] 0.000140137
9 *572:13 wbs_dat_o[17] 0.000283712
10 *572:13 wbs_dat_o[7] 0.00518465
11 *572:13 *606:11 0.002212
12 *572:13 *610:9 0.0132938
13 *572:13 *633:25 0.000724331
14 *572:13 *634:27 0.00301613
15 *572:13 *636:33 0.000286188
16 *572:13 *641:15 0.0076944
17 *572:29 *615:17 0.0111041
18 *572:29 *616:21 4.73953e-05
19 *572:29 *638:21 0.00315621
20 *572:29 *639:9 5.0145e-05
21 *572:29 *641:37 0.00299309
22 *572:29 *643:27 0.00209631
23 *572:43 *803:wbs_dat_i[15] 0.00925765
24 *572:43 *578:11 0.000106719
25 *572:43 *581:11 0.000569945
26 *572:43 *593:25 0.000115077
27 *572:43 *605:39 0.000473919
28 *572:43 *607:37 0
29 *572:43 *639:9 0.000565124
30 *544:11 *572:13 0.00289911
31 *545:17 *572:13 0.000140137
32 *546:17 *572:13 4.73891e-05
33 *548:17 *572:13 4.73953e-05
34 *550:17 *572:13 4.73891e-05
35 *551:17 *572:13 4.73891e-05
36 *552:17 *572:13 0.000140137
37 *553:17 *572:29 0.00012975
38 *570:11 *572:13 0.00238348
39 *571:11 *572:13 0.0085657
*RES
1 wbs_adr_i[7] *572:13 42.8174 
2 *572:13 *572:29 43.2382 
3 *572:29 *572:43 49.1246 
4 *572:43 *803:wbs_adr_i[7] 5.29393 
*END

*D_NET *573 0.163019
*CONN
*P wbs_adr_i[8] I
*I *803:wbs_adr_i[8] I *D memory_macro
*CAP
1 wbs_adr_i[8] 0.000545453
2 *803:wbs_adr_i[8] 0.000398717
3 *573:11 0.013563
4 *573:9 0.0137097
5 *573:11 *803:wbs_dat_i[6] 0.00096871
6 *573:11 *574:11 0.0720849
7 *573:11 *590:17 0
8 *573:11 *598:19 0.00563659
9 *573:11 *642:29 0.000988991
10 *554:11 *573:11 0.000351788
11 *560:11 *573:11 0.00527757
12 *568:11 *573:11 0.000962059
13 *569:11 *573:11 0.0444533
14 *570:19 *573:11 0.00407863
*RES
1 wbs_adr_i[8] *573:9 13.0536 
2 *573:9 *573:11 694.643 
3 *573:11 *803:wbs_adr_i[8] 9.57143 
*END

*D_NET *574 0.189928
*CONN
*P wbs_adr_i[9] I
*I *803:wbs_adr_i[9] I *D memory_macro
*CAP
1 wbs_adr_i[9] 0.000635862
2 *803:wbs_adr_i[9] 0.000372722
3 *574:11 0.0113488
4 *574:9 0.0116119
5 *574:11 *586:13 0.0002749
6 *574:11 *586:15 0.00175309
7 *574:11 *587:11 0.00326061
8 *574:11 *590:17 0
9 *574:11 *598:19 0.000307126
10 *560:11 *574:11 0.0111092
11 *563:11 *574:11 0.000190544
12 *564:11 *574:11 0.000677139
13 *566:11 *574:11 0.000914664
14 *567:11 *574:11 0.0424505
15 *568:11 *574:11 0.0329362
16 *573:11 *574:11 0.0720849
*RES
1 wbs_adr_i[9] *574:9 13.7679 
2 *574:9 *574:11 747.214 
3 *574:11 *803:wbs_adr_i[9] 9.26786 
*END

*D_NET *575 0.0305151
*CONN
*P wbs_cyc_i I
*I *803:wbs_cyc_i I *D memory_macro
*CAP
1 wbs_cyc_i 0.00453271
2 *803:wbs_cyc_i 0.00453271
3 *803:wbs_cyc_i *803:wbs_we_i 0.00150637
4 *803:wbs_cyc_i *601:33 0
5 *540:11 *803:wbs_cyc_i 0.00498377
6 *540:23 *803:wbs_cyc_i 0.000394731
7 *541:49 *803:wbs_cyc_i 2.74588e-05
8 *543:15 *803:wbs_cyc_i 0.0145373
*RES
1 wbs_cyc_i *803:wbs_cyc_i 46.4883 
*END

*D_NET *576 0.0461517
*CONN
*P wbs_dat_i[0] I
*I *803:wbs_dat_i[0] I *D memory_macro
*CAP
1 wbs_dat_i[0] 0.00308191
2 *803:wbs_dat_i[0] 0.00330295
3 *576:17 0.00638487
4 *803:wbs_dat_i[0] *579:11 0.000110018
5 *803:wbs_dat_i[0] *587:11 0.000784643
6 *803:wbs_dat_i[0] *598:19 0.00366678
7 *803:wbs_dat_i[0] *601:33 0.000867213
8 *803:wbs_dat_i[0] *604:11 0.00384925
9 *803:wbs_dat_i[0] *635:33 0.000186783
10 *803:wbs_dat_i[0] *642:29 0.00355727
11 *576:17 wbs_dat_o[1] 1.83329e-05
12 *576:17 wbs_dat_o[5] 0
13 *576:17 *803:wbs_dat_i[5] 9.74583e-05
14 *576:17 *633:25 0.000245287
15 *576:17 *641:15 0.00850018
16 *576:17 *644:15 0.000280782
17 *576:17 *645:23 0.0109151
18 wbs_ack_o *576:17 0.000172806
19 *565:17 *803:wbs_dat_i[0] 7.46146e-05
20 *565:17 *576:17 5.53997e-05
*RES
1 wbs_dat_i[0] *576:17 36.506 
2 *576:17 *803:wbs_dat_i[0] 29.2237 
*END

*D_NET *577 0.190065
*CONN
*P wbs_dat_i[10] I
*I *803:wbs_dat_i[10] I *D memory_macro
*CAP
1 wbs_dat_i[10] 0.000317441
2 *803:wbs_dat_i[10] 0.00675324
3 *577:29 0.0527325
4 *577:11 0.0486433
5 *577:9 0.00298149
6 *803:wbs_dat_i[10] *578:11 0.00102615
7 *803:wbs_dat_i[10] *581:11 0.0029805
8 *803:wbs_dat_i[10] *593:25 0.000951619
9 *803:wbs_dat_i[10] *622:17 0.00477258
10 *803:wbs_dat_i[10] *625:9 0.00103631
11 *577:11 *582:11 0.00354359
12 *577:11 *610:9 0.00195058
13 *577:11 *613:9 0.00044272
14 *577:11 *634:27 0.00802722
15 *577:11 *636:33 0.000335334
16 *577:11 *643:11 0.000808058
17 *577:29 wbs_dat_o[12] 0.000613972
18 *577:29 wbs_dat_o[17] 0.000716929
19 *577:29 *579:29 0.0459661
20 *577:29 *604:11 0.000609143
21 *803:wbs_adr_i[10] *803:wbs_dat_i[10] 5.40377e-05
22 *544:11 *577:11 0.00219441
23 *552:17 *577:29 0.00260759
*RES
1 wbs_dat_i[10] *577:9 7.28571 
2 *577:9 *577:11 113.071 
3 *577:11 *577:29 45.0369 
4 *577:29 *803:wbs_dat_i[10] 31.9994 
*END

*D_NET *578 0.217596
*CONN
*P wbs_dat_i[11] I
*I *803:wbs_dat_i[11] I *D memory_macro
*CAP
1 wbs_dat_i[11] 0.000970359
2 *803:wbs_dat_i[11] 0.000121872
3 *578:11 0.012061
4 *578:9 0.0129095
5 *578:9 wbs_dat_o[11] 0
6 *578:9 *641:15 0
7 *578:11 wbs_dat_o[9] 0.00019054
8 *578:11 *803:wbs_dat_i[7] 0.000219809
9 *578:11 *581:11 0.00288157
10 *578:11 *593:25 0.0537128
11 *578:11 *601:35 0.031471
12 *578:11 *625:9 0.00193708
13 *578:11 *633:9 0.00135214
14 *578:11 *635:23 0.00257273
15 *578:11 *639:9 0.0128195
16 *803:wbs_adr_i[11] *578:11 0.000103169
17 *803:wbs_dat_i[10] *578:11 0.00102615
18 *556:11 *578:11 0.0766439
19 *562:13 *578:11 0.000285799
20 *565:19 *578:11 0.00621089
21 *572:43 *578:11 0.000106719
*RES
1 wbs_dat_i[11] *578:9 16.8036 
2 *578:9 *578:11 871.25 
3 *578:11 *803:wbs_dat_i[11] 6.23214 
*END

*D_NET *579 0.190506
*CONN
*P wbs_dat_i[12] I
*I *803:wbs_dat_i[12] I *D memory_macro
*CAP
1 wbs_dat_i[12] 0.000612097
2 *803:wbs_dat_i[12] 0.00704051
3 *579:29 0.0522315
4 *579:11 0.0490787
5 *579:9 0.00449976
6 *803:wbs_dat_i[12] *581:11 0.00809885
7 *803:wbs_dat_i[12] *593:25 0.0016869
8 *803:wbs_dat_i[12] *611:23 0.000382342
9 *803:wbs_dat_i[12] *622:17 0.00404758
10 *579:11 *580:11 0.00178512
11 *579:11 *584:15 0.000169615
12 *579:11 *635:33 0.0125334
13 *579:11 *642:29 0.000210643
14 *579:29 *585:11 0.000605656
15 *579:29 *586:13 0.000610484
16 *579:29 *633:23 0.000220214
17 *803:wbs_dat_i[0] *579:11 0.000110018
18 *546:31 *803:wbs_dat_i[12] 0.000616845
19 *569:11 *579:11 0
20 *577:29 *579:29 0.0459661
*RES
1 wbs_dat_i[12] *579:9 11.3393 
2 *579:9 *579:11 118 
3 *579:11 *579:29 47.4065 
4 *579:29 *803:wbs_dat_i[12] 37.6011 
*END

*D_NET *580 0.192196
*CONN
*P wbs_dat_i[13] I
*I *803:wbs_dat_i[13] I *D memory_macro
*CAP
1 wbs_dat_i[13] 0.000580756
2 *803:wbs_dat_i[13] 0.000458574
3 *580:11 0.0270763
4 *580:9 0.0271985
5 *580:11 wbs_dat_o[29] 0.000233052
6 *580:11 *803:wbs_dat_i[5] 3.13654e-05
7 *580:11 *803:wbs_dat_i[6] 0.00251633
8 *580:11 *582:25 0.000369166
9 *580:11 *584:15 0.00092723
10 *580:11 *588:11 0.00201196
11 *580:11 *588:27 0.000332568
12 *580:11 *589:25 0.000333513
13 *580:11 *590:17 0.0125062
14 *580:11 *593:19 0.012026
15 *580:11 *595:25 7.76075e-06
16 *580:11 *597:25 4.7224e-05
17 *580:11 *602:37 9.62509e-05
18 *580:11 *604:11 0.00597709
19 *580:11 *605:39 0.000347262
20 *580:11 *627:9 0.0190886
21 *580:11 *638:9 0.000359903
22 *580:11 *642:29 0.0221987
23 *803:wbs_adr_i[20] *580:11 0.0190918
24 *544:55 *580:11 0.000369166
25 *547:19 *580:11 0.000372524
26 *549:37 *580:11 0.00820436
27 *553:17 *580:11 0.00189545
28 *560:11 *580:11 0.0255819
29 *570:19 *580:11 0.000171818
30 *579:11 *580:11 0.00178512
*RES
1 wbs_dat_i[13] *580:9 10.2939 
2 *580:9 *580:11 171.638 
3 *580:11 *803:wbs_dat_i[13] 10.1511 
*END

*D_NET *581 0.279006
*CONN
*P wbs_dat_i[14] I
*I *803:wbs_dat_i[14] I *D memory_macro
*CAP
1 wbs_dat_i[14] 0.000803014
2 *803:wbs_dat_i[14] 0.000170499
3 *581:11 0.0206015
4 *581:9 0.021234
5 *581:9 *608:9 0
6 *581:11 *803:wbs_dat_i[7] 0.00110363
7 *581:11 *803:wbs_dat_i[9] 0.000100938
8 *581:11 *803:wbs_sel_i[3] 0.000100938
9 *581:11 *583:11 0.112589
10 *581:11 *593:25 0.00223134
11 *581:11 *606:35 5.40377e-05
12 *581:11 *609:15 3.13654e-05
13 *581:11 *611:23 0.00146361
14 *581:11 *612:15 0.00103861
15 *581:11 *622:17 0.00668114
16 *581:11 *635:23 0.0131426
17 *581:11 *636:15 0.000100938
18 *581:11 *636:25 5.11642e-05
19 *581:11 *637:15 0.000100938
20 *581:11 *639:9 0.0352386
21 *581:11 *640:13 0.00121784
22 *581:11 *643:27 5.11642e-05
23 *803:wbs_adr_i[11] *581:11 0.000276371
24 *803:wbs_adr_i[13] *581:11 5.85882e-05
25 *803:wbs_adr_i[14] *581:11 5.85882e-05
26 *803:wbs_adr_i[6] *581:11 5.40377e-05
27 *803:wbs_dat_i[10] *581:11 0.0029805
28 *803:wbs_dat_i[12] *581:11 0.00809885
29 *554:11 *581:11 0.000437305
30 *556:11 *581:11 0.0225682
31 *557:11 *581:11 0.0206009
32 *562:13 *581:11 0.0016528
33 *565:19 *581:11 0.000661292
34 *572:43 *581:11 0.000569945
35 *578:11 *581:11 0.00288157
*RES
1 wbs_dat_i[14] *581:9 14.1332 
2 *581:9 *581:11 181.006 
3 *581:11 *803:wbs_dat_i[14] 5.90107 
*END

*D_NET *582 0.206501
*CONN
*P wbs_dat_i[15] I
*I *803:wbs_dat_i[15] I *D memory_macro
*CAP
1 wbs_dat_i[15] 0.000427245
2 *803:wbs_dat_i[15] 0.0805418
3 *582:25 0.088531
4 *582:11 0.00960324
5 *582:9 0.00204126
6 *803:wbs_dat_i[15] *583:11 2.08716e-05
7 *803:wbs_dat_i[15] *614:15 0
8 *803:wbs_dat_i[15] *622:17 4.98422e-05
9 *582:11 *610:9 0.00190013
10 *582:11 *613:9 0.00296408
11 *582:11 *617:9 0.00405504
12 *582:25 *604:11 0.000657393
13 *582:25 *635:31 0.000103838
14 *803:wbs_adr_i[20] *582:25 0.000144849
15 *544:11 *582:11 0.00226485
16 *553:17 *582:25 0
17 *556:9 *582:25 2.47801e-05
18 *572:43 *803:wbs_dat_i[15] 0.00925765
19 *577:11 *582:11 0.00354359
20 *580:11 *582:25 0.000369166
*RES
1 wbs_dat_i[15] *582:9 8 
2 *582:9 *582:11 88.8393 
3 *582:11 *582:25 36.5659 
4 *582:25 *803:wbs_dat_i[15] 48.304 
*END

*D_NET *583 0.339641
*CONN
*P wbs_dat_i[16] I
*I *803:wbs_dat_i[16] I *D memory_macro
*CAP
1 wbs_dat_i[16] 0.000799738
2 *803:wbs_dat_i[16] 0.000213094
3 *583:11 0.0200505
4 *583:9 0.0206371
5 *583:9 *630:19 2.94034e-05
6 *583:11 *585:11 0.124342
7 *583:11 *587:11 0.000873488
8 *583:11 *614:15 0.000757481
9 *583:11 *622:17 0.00372575
10 *583:11 *625:9 0.000680495
11 *803:wbs_adr_i[16] *583:11 2.08716e-05
12 *803:wbs_dat_i[15] *583:11 2.08716e-05
13 *554:11 *583:11 0.000800039
14 *556:11 *583:11 0.0017948
15 *557:11 *583:11 0.00206466
16 *558:11 *583:11 0.0252122
17 *559:11 *583:11 0.0229664
18 *565:19 *583:11 0.00206279
19 *581:11 *583:11 0.112589
*RES
1 wbs_dat_i[16] *583:9 14.1332 
2 *583:9 *583:11 199.96 
3 *583:11 *803:wbs_dat_i[16] 6.50821 
*END

*D_NET *584 0.375817
*CONN
*P wbs_dat_i[17] I
*I *803:wbs_dat_i[17] I *D memory_macro
*CAP
1 wbs_dat_i[17] 0.0113068
2 *803:wbs_dat_i[17] 0.0105017
3 *584:19 0.045511
4 *584:17 0.0350093
5 *584:15 0.0113068
6 *803:wbs_dat_i[17] *585:11 0.000314673
7 *803:wbs_dat_i[17] *593:25 0.000227615
8 *803:wbs_dat_i[17] *622:17 0.00109469
9 *803:wbs_dat_i[17] *625:9 0.000237025
10 *584:15 wbs_dat_o[16] 0.000334265
11 *584:15 *604:11 0.000528715
12 *584:15 *635:33 0.000169615
13 *584:19 *803:cpu_mem_addr[6] 4.98422e-05
14 *584:19 *803:cpu_mem_wdata[10] 3.46553e-05
15 *584:19 *803:cpu_mem_wdata[11] 0.000685154
16 *584:19 *803:cpu_mem_wdata[12] 0.000334428
17 *584:19 *803:cpu_mem_wdata[22] 0.000520315
18 *584:19 *803:cpu_mem_wdata[3] 0.000206042
19 *584:19 *803:cpu_mem_wdata[8] 0.000772042
20 *584:19 *803:cpu_mem_wdata[9] 0.00663934
21 *584:19 *588:27 3.07266e-05
22 *584:19 *588:35 0.0228053
23 *584:19 *681:27 0.0580409
24 *584:19 *682:14 0.000362904
25 *584:19 *736:24 0.000204436
26 *584:19 *737:26 0.000805081
27 *584:19 *738:21 9.93074e-05
28 *584:19 *740:8 4.98422e-05
29 *584:19 *770:29 0.000849785
30 *529:28 *584:19 0.0253974
31 *550:19 *584:19 0.000287943
32 *551:17 *584:15 0
33 *551:19 *584:19 0.129382
34 *562:25 *584:19 8.33861e-05
35 *562:27 *584:19 0.0105378
36 *579:11 *584:15 0.000169615
37 *580:11 *584:15 0.00092723
*RES
1 wbs_dat_i[17] *584:15 47.4995 
2 *584:15 *584:17 3.41 
3 *584:17 *584:19 209.184 
4 *584:19 *803:wbs_dat_i[17] 44.7217 
*END

*D_NET *585 0.381134
*CONN
*P wbs_dat_i[18] I
*I *803:wbs_dat_i[18] I *D memory_macro
*CAP
1 wbs_dat_i[18] 0.00085223
2 *803:wbs_dat_i[18] 0.000251232
3 *585:11 0.0219882
4 *585:9 0.0225892
5 *585:9 wbs_dat_o[18] 0
6 *585:9 *803:wbs_dat_i[1] 2.89139e-05
7 *585:11 *586:13 0.000456881
8 *585:11 *586:15 0.136637
9 *585:11 *587:11 9.15989e-05
10 *585:11 *598:19 0.000600682
11 *585:11 *615:15 2.92862e-05
12 *585:11 *616:11 0.000670974
13 *585:11 *622:9 0.000605397
14 *585:11 *622:17 0.00123643
15 *585:11 *633:17 0.00012546
16 *803:wbs_adr_i[17] *585:11 1.56785e-05
17 *803:wbs_adr_i[18] *585:11 0.000578559
18 *803:wbs_adr_i[20] *585:11 0.016773
19 *803:wbs_dat_i[17] *585:11 0.000314673
20 *561:11 *585:11 0.027509
21 *563:11 *585:11 0.0248325
22 *579:29 *585:11 0.000605656
23 *583:11 *585:11 0.124342
*RES
1 wbs_dat_i[18] *585:9 13.7404 
2 *585:9 *585:11 218.193 
3 *585:11 *803:wbs_dat_i[18] 7.11536 
*END

*D_NET *586 0.415392
*CONN
*P wbs_dat_i[19] I
*I *803:wbs_dat_i[19] I *D memory_macro
*CAP
1 wbs_dat_i[19] 0.00113329
2 *803:wbs_dat_i[19] 0.000293827
3 *586:15 0.0229945
4 *586:13 0.0238339
5 *586:13 *598:19 0.0014737
6 *586:15 *598:19 0.00399299
7 *586:15 *622:9 0
8 *586:15 *633:17 0.00162084
9 *586:15 *642:29 0.000646322
10 *803:wbs_adr_i[19] *586:15 2.09057e-05
11 *803:wbs_adr_i[20] *586:15 0.0281911
12 *560:11 *586:15 0.135909
13 *564:11 *586:15 0.0281086
14 *566:11 *586:15 0.0256901
15 *568:11 *586:13 0.00012546
16 *568:11 *586:15 0.00162576
17 *574:11 *586:13 0.0002749
18 *574:11 *586:15 0.00175309
19 *579:29 *586:13 0.000610484
20 *585:11 *586:13 0.000456881
21 *585:11 *586:15 0.136637
*RES
1 wbs_dat_i[19] *586:13 14.9967 
2 *586:13 *586:15 225.291 
3 *586:15 *803:wbs_dat_i[19] 7.7225 
*END

*D_NET *587 0.0770664
*CONN
*P wbs_dat_i[1] I
*I *803:wbs_dat_i[1] I *D memory_macro
*CAP
1 wbs_dat_i[1] 0.000423185
2 *803:wbs_dat_i[1] 0.000305684
3 *587:11 0.00639445
4 *587:9 0.00651195
5 *587:11 wbs_dat_o[1] 0
6 *587:11 *598:19 0.0204293
7 *587:11 *641:15 0
8 *803:wbs_dat_i[0] *587:11 0.000784643
9 *554:11 *587:11 0.0296907
10 *565:17 *587:11 0.00216612
11 *568:11 *587:11 0.00557729
12 *569:11 *587:11 0.000528418
13 *574:11 *587:11 0.00326061
14 *583:11 *587:11 0.000873488
15 *585:9 *803:wbs_dat_i[1] 2.89139e-05
16 *585:11 *587:11 9.15989e-05
*RES
1 wbs_dat_i[1] *587:9 11.7046 
2 *587:9 *587:11 50.4216 
3 *587:11 *803:wbs_dat_i[1] 8.32964 
*END

*D_NET *588 0.297051
*CONN
*P wbs_dat_i[20] I
*I *803:wbs_dat_i[20] I *D memory_macro
*CAP
1 wbs_dat_i[20] 0.000549836
2 *803:wbs_dat_i[20] 8.8312e-05
3 *588:51 0.0105301
4 *588:35 0.0503405
5 *588:33 0.040049
6 *588:27 0.0114587
7 *588:11 0.0151994
8 *588:9 0.00444083
9 *588:9 *637:31 0
10 *588:11 *589:11 0
11 *588:11 *590:17 0.00110935
12 *588:11 *635:33 0.00100708
13 *588:11 *643:11 0
14 *588:27 *604:21 0
15 *588:27 *607:37 0
16 *588:27 *642:29 0.000327739
17 *588:35 *650:6 0.00329435
18 *588:35 *681:27 0.000350219
19 *588:35 *682:14 0.000468851
20 *588:35 *786:22 0
21 *588:51 *595:27 1.1192e-05
22 *588:51 *622:9 4.98422e-05
23 *588:51 *650:6 0.000415434
24 *588:51 *723:9 9.13473e-05
25 *529:28 *588:35 0.00173525
26 *561:9 *588:27 9.16344e-05
27 *562:27 *588:35 0.129358
28 *569:11 *588:11 0
29 *570:19 *588:11 0.000902764
30 *580:11 *588:11 0.00201196
31 *580:11 *588:27 0.000332568
32 *584:19 *588:27 3.07266e-05
33 *584:19 *588:35 0.0228053
*RES
1 wbs_dat_i[20] *588:9 10.9286 
2 *588:9 *588:11 90.0714 
3 *588:11 *588:27 48.5606 
4 *588:27 *588:33 10.6154 
5 *588:33 *588:35 1253.21 
6 *588:35 *588:51 47.2237 
7 *588:51 *803:wbs_dat_i[20] 4.68679 
*END

*D_NET *589 0.273175
*CONN
*P wbs_dat_i[21] I
*I *803:wbs_dat_i[21] I *D memory_macro
*CAP
1 wbs_dat_i[21] 0.0003578
2 *803:wbs_dat_i[21] 0.000500159
3 *589:27 0.040736
4 *589:25 0.0412444
5 *589:11 0.00444301
6 *589:9 0.0037923
7 *589:11 wbs_dat_o[12] 0.000248082
8 *589:11 *590:17 0
9 *589:11 *613:9 0.0137296
10 *589:11 *635:31 0.000592882
11 *589:11 *636:33 0.000216149
12 *589:11 *638:9 0.00129407
13 *589:11 *643:11 0.00484177
14 *589:25 wbs_dat_o[29] 0
15 *589:25 *590:17 0.0026214
16 *589:25 *597:25 0
17 *589:27 *590:17 0.133049
18 *589:27 *613:9 0
19 *589:27 *617:9 0
20 *589:27 *621:9 0
21 *589:27 *627:9 0.0195565
22 *549:37 *589:27 0.00556167
23 *567:9 *589:25 5.5744e-05
24 *570:19 *589:25 0
25 *580:11 *589:25 0.000333513
26 *588:11 *589:11 0
*RES
1 wbs_dat_i[21] *589:9 8.5 
2 *589:9 *589:11 129.5 
3 *589:11 *589:25 45.75 
4 *589:25 *589:27 1249.52 
5 *589:27 *803:wbs_dat_i[21] 12.6071 
*END

*D_NET *590 0.265166
*CONN
*P wbs_dat_i[22] I
*I *803:wbs_dat_i[22] I *D memory_macro
*CAP
1 wbs_dat_i[22] 0.00223267
2 *803:wbs_dat_i[22] 0.000472417
3 *590:17 0.0487396
4 *590:15 0.0504998
5 *590:15 *602:11 0.00116041
6 *590:15 *605:11 0.000953445
7 *590:15 *605:39 0.000377008
8 *590:15 *620:25 0.00246507
9 *590:17 wbs_dat_o[29] 0.00040381
10 *590:17 *591:11 0
11 *590:17 *613:9 0
12 *590:17 *621:9 0
13 *590:17 *627:9 0.0027692
14 *549:11 *590:15 0.000252794
15 *549:37 *590:17 0.00555387
16 *570:19 *590:17 0
17 *573:11 *590:17 0
18 *574:11 *590:17 0
19 *580:11 *590:17 0.0125062
20 *588:11 *590:17 0.00110935
21 *589:11 *590:17 0
22 *589:25 *590:17 0.0026214
23 *589:27 *590:17 0.133049
*RES
1 wbs_dat_i[22] *590:15 25.6598 
2 *590:15 *590:17 1417.09 
3 *590:17 *803:wbs_dat_i[22] 12.3036 
*END

*D_NET *591 0.368938
*CONN
*P wbs_dat_i[23] I
*I *803:wbs_dat_i[23] I *D memory_macro
*CAP
1 wbs_dat_i[23] 0.000225063
2 *803:wbs_dat_i[23] 0.000682361
3 *591:11 0.0214636
4 *591:9 0.0210063
5 *591:11 *606:11 0.000283615
6 *591:11 *610:9 0.0157758
7 *591:11 *621:9 0.148666
8 *591:11 *623:9 0.160049
9 *591:11 *627:9 0.000786378
10 *549:25 *591:9 0
11 *590:17 *591:11 0
*RES
1 wbs_dat_i[23] *591:9 7.48214 
2 *591:9 *591:11 1510.32 
3 *591:11 *803:wbs_dat_i[23] 16.8214 
*END

*D_NET *592 0.397274
*CONN
*P wbs_dat_i[24] I
*I *803:wbs_dat_i[24] I *D memory_macro
*CAP
1 wbs_dat_i[24] 0.000175962
2 *803:wbs_dat_i[24] 0.000652154
3 *592:11 0.0206764
4 *592:9 0.0202002
5 *592:11 *607:15 0.000236083
6 *592:11 *618:9 0.0280556
7 *592:11 *623:9 0.161494
8 *592:11 *624:9 0.165784
*RES
1 wbs_dat_i[24] *592:9 6.67857 
2 *592:9 *592:11 1562.89 
3 *592:11 *803:wbs_dat_i[24] 15.9464 
*END

*D_NET *593 0.305417
*CONN
*P wbs_dat_i[25] I
*I *803:wbs_dat_i[25] I *D memory_macro
*CAP
1 wbs_dat_i[25] 0.00436012
2 *803:wbs_dat_i[25] 8.56916e-05
3 *593:25 0.0281246
4 *593:23 0.0283844
5 *593:19 0.00470558
6 *593:19 wbs_dat_o[25] 0.000496184
7 *593:19 wbs_dat_o[27] 0.000221078
8 *593:19 *602:11 0.00161277
9 *593:19 *620:25 0.00135641
10 *593:19 *626:9 0.00191423
11 *593:25 *803:wbs_dat_i[7] 0.000237025
12 *593:25 *612:15 0.000359554
13 *593:25 *614:15 0.000416099
14 *593:25 *616:11 0.000501532
15 *593:25 *622:9 0.00705992
16 *593:25 *622:17 0.00344337
17 *593:25 *625:9 0.0851276
18 *593:25 *635:23 0.00277422
19 *593:25 *639:9 0.00585743
20 *803:wbs_adr_i[18] *593:25 0.000434947
21 *803:wbs_adr_i[20] *593:19 0.00231544
22 *803:wbs_adr_i[4] *593:23 6.44211e-05
23 *803:wbs_dat_i[10] *593:25 0.000951619
24 *803:wbs_dat_i[12] *593:25 0.0016869
25 *803:wbs_dat_i[17] *593:25 0.000227615
26 *556:11 *593:25 0.0394295
27 *557:11 *593:25 0.00285816
28 *558:11 *593:25 0.00217879
29 *559:11 *593:25 0.000842691
30 *560:11 *593:19 0.00674855
31 *561:11 *593:25 0
32 *570:19 *593:19 0.00255547
33 *572:43 *593:25 0.000115077
34 *578:11 *593:25 0.0537128
35 *580:11 *593:19 0.012026
36 *581:11 *593:25 0.00223134
*RES
1 wbs_dat_i[25] *593:19 48.2175 
2 *593:19 *593:23 9.33036 
3 *593:23 *593:25 1470.89 
4 *593:25 *803:wbs_dat_i[25] 5.92857 
*END

*D_NET *594 0.41769
*CONN
*P wbs_dat_i[26] I
*I *803:wbs_dat_i[26] I *D memory_macro
*CAP
1 wbs_dat_i[26] 0.000215838
2 *803:wbs_dat_i[26] 0.00168473
3 *594:11 0.0238172
4 *594:9 0.0223484
5 *594:11 wbs_dat_o[25] 0.000838714
6 *594:11 wbs_dat_o[31] 0.000281067
7 *594:11 *596:11 0.172125
8 *594:11 *602:11 5.04021e-05
9 *594:11 *618:9 0.00016105
10 *594:11 *620:9 0.0270663
11 *594:11 *620:25 0.00130038
12 *594:11 *624:9 0.165431
13 *594:11 *626:9 0.00209566
14 *567:11 *803:wbs_dat_i[26] 0.000274325
*RES
1 wbs_dat_i[26] *594:9 6.48214 
2 *594:9 *594:11 1647.09 
3 *594:11 *803:wbs_dat_i[26] 47.5714 
*END

*D_NET *595 0.322391
*CONN
*P wbs_dat_i[27] I
*I *803:wbs_dat_i[27] I *D memory_macro
*CAP
1 wbs_dat_i[27] 0.0771125
2 *803:wbs_dat_i[27] 0.000240456
3 *595:27 0.021984
4 *595:25 0.098856
5 *595:25 *638:9 4.73953e-05
6 *595:27 *622:9 0
7 *595:27 *627:9 0
8 *595:27 *629:13 0
9 *803:wbs_adr_i[20] *595:25 0.032516
10 *558:11 *595:27 0.0023796
11 *559:11 *595:27 0.00413711
12 *560:11 *595:27 0.0387942
13 *561:11 *595:27 0.00801876
14 *562:43 *595:27 0
15 *563:11 *595:27 0.0112798
16 *564:11 *595:27 0.0123807
17 *566:11 *595:27 0.0114815
18 *567:11 *595:27 0.00314437
19 *580:11 *595:25 7.76075e-06
20 *588:51 *595:27 1.1192e-05
*RES
1 wbs_dat_i[27] *595:25 41.444 
2 *595:25 *595:27 88.653 
3 *595:27 *803:wbs_dat_i[27] 7.7225 
*END

*D_NET *596 0.45177
*CONN
*P wbs_dat_i[28] I
*I *803:wbs_dat_i[28] I *D memory_macro
*CAP
1 wbs_dat_i[28] 0.000126988
2 *803:wbs_dat_i[28] 0.00152815
3 *596:11 0.0257163
4 *596:9 0.0243152
5 *596:11 *602:11 0.000180163
6 *596:11 *626:9 0.0410353
7 *596:11 *628:13 0.186518
8 *567:11 *803:wbs_dat_i[28] 0.000225044
9 *594:11 *596:11 0.172125
*RES
1 wbs_dat_i[28] *596:9 5.66071 
2 *596:9 *596:11 1757.57 
3 *596:11 *803:wbs_dat_i[28] 44.5893 
*END

*D_NET *597 0.373384
*CONN
*P wbs_dat_i[29] I
*I *803:wbs_dat_i[29] I *D memory_macro
*CAP
1 wbs_dat_i[29] 0.0734697
2 *803:wbs_dat_i[29] 0.00101959
3 *597:27 0.033413
4 *597:25 0.105863
5 *803:wbs_dat_i[29] *629:13 0.000946683
6 *803:wbs_dat_i[29] *632:13 0.000741193
7 *597:25 *803:wbs_dat_i[5] 0.00456563
8 *597:25 *600:27 0.0068528
9 *597:25 *602:37 0.00180917
10 *597:25 *627:9 5.46816e-05
11 *597:27 *629:13 0.0888748
12 *547:27 *597:25 0.0154478
13 *548:19 *597:25 0.0171565
14 *553:19 *597:25 0.0231224
15 *553:19 *597:27 0
16 *580:11 *597:25 4.7224e-05
17 *589:25 *597:25 0
*RES
1 wbs_dat_i[29] *597:25 40.7252 
2 *597:25 *597:27 141.298 
3 *597:27 *803:wbs_dat_i[29] 14.1599 
*END

*D_NET *598 0.0975927
*CONN
*P wbs_dat_i[2] I
*I *803:wbs_dat_i[2] I *D memory_macro
*CAP
1 wbs_dat_i[2] 0.00245942
2 *803:wbs_dat_i[2] 0.000360626
3 *598:19 0.00603996
4 *598:17 0.00813875
5 *803:wbs_dat_i[2] *643:27 0.000116859
6 *598:17 *601:33 0.00127745
7 *598:17 *604:11 0.00110355
8 *598:17 *641:15 0.000360754
9 *598:17 *642:21 0.0070782
10 *598:17 *643:11 0.000403581
11 *598:19 *642:29 0.0241233
12 *803:wbs_adr_i[20] *598:19 0.00105331
13 *803:wbs_dat_i[0] *598:19 0.00366678
14 *541:37 *598:17 4.98422e-05
15 *565:17 *598:17 0.00228933
16 *568:11 *598:19 0.00103294
17 *569:11 *598:19 0.00559759
18 *573:11 *598:19 0.00563659
19 *574:11 *598:19 0.000307126
20 *585:11 *598:19 0.000600682
21 *586:13 *598:19 0.0014737
22 *586:15 *598:19 0.00399299
23 *587:11 *598:19 0.0204293
*RES
1 wbs_dat_i[2] *598:17 33.1297 
2 *598:17 *598:19 48.1875 
3 *598:19 *803:wbs_dat_i[2] 8.93679 
*END

*D_NET *599 0.440173
*CONN
*P wbs_dat_i[30] I
*I *803:wbs_dat_i[30] I *D memory_macro
*CAP
1 wbs_dat_i[30] 0.000235653
2 *803:wbs_dat_i[30] 0.000204538
3 *599:19 0.00165172
4 *599:11 0.0256793
5 *599:9 0.0244678
6 *599:11 *602:11 0.000289077
7 *599:11 *620:25 0.000528418
8 *599:11 *626:9 0.000273261
9 *599:11 *628:13 0.188053
10 *599:11 *631:9 0.196887
11 *566:11 *599:19 0.000535248
12 *567:11 *599:19 0.00136768
*RES
1 wbs_dat_i[30] *599:9 6.48214 
2 *599:9 *599:11 1853.68 
3 *599:11 *599:19 46.2857 
4 *599:19 *803:wbs_dat_i[30] 8.35714 
*END

*D_NET *600 0.267985
*CONN
*P wbs_dat_i[31] I
*I *803:wbs_dat_i[31] I *D memory_macro
*CAP
1 wbs_dat_i[31] 0.0466314
2 *803:wbs_dat_i[31] 0.00113247
3 *600:27 0.0693085
4 *600:25 0.114807
5 *600:25 *602:37 0
6 *600:25 *611:31 0.0120357
7 *600:25 *618:9 0.000140137
8 *600:25 *620:25 2.03618e-05
9 *600:25 *626:9 0.000144966
10 *600:25 *636:25 7.09058e-05
11 *544:55 *600:25 0.00714936
12 *548:19 *600:27 0.00217216
13 *553:19 *600:27 0.0075186
14 *597:25 *600:27 0.0068528
*RES
1 wbs_dat_i[31] *600:25 40.9394 
2 *600:25 *600:27 221.436 
3 *600:27 *803:wbs_dat_i[31] 13.0256 
*END

*D_NET *601 0.0868253
*CONN
*P wbs_dat_i[3] I
*I *803:wbs_dat_i[3] I *D memory_macro
*CAP
1 wbs_dat_i[3] 0.00401524
2 *803:wbs_dat_i[3] 0.000105394
3 *601:35 0.00893454
4 *601:33 0.0128444
5 *601:33 wbs_dat_o[1] 0.000591123
6 *601:33 *604:11 0.000590522
7 *601:33 *642:21 9.32361e-05
8 *601:35 wbs_dat_o[9] 0.000670205
9 *601:35 *630:13 0.00486913
10 *601:35 *633:9 0.00808403
11 *601:35 *639:9 0.00599224
12 *803:wbs_adr_i[2] *601:35 0.00179027
13 *803:wbs_cyc_i *601:33 0
14 *803:wbs_dat_i[0] *601:33 0.000867213
15 *541:37 *601:33 0
16 *543:15 *601:35 0.000853089
17 *562:13 *601:35 0.000308183
18 *565:17 *601:33 0.0011609
19 *565:19 *601:35 0.00230715
20 *578:11 *601:35 0.031471
21 *598:17 *601:33 0.00127745
*RES
1 wbs_dat_i[3] *601:33 35.6401 
2 *601:33 *601:35 371 
3 *601:35 *803:wbs_dat_i[3] 5.92857 
*END

*D_NET *602 0.0981393
*CONN
*P wbs_dat_i[4] I
*I *803:wbs_dat_i[4] I *D memory_macro
*CAP
1 wbs_dat_i[4] 0.000127832
2 *803:wbs_dat_i[4] 0.000436435
3 *602:37 0.00662894
4 *602:11 0.0205405
5 *602:9 0.0144758
6 *602:11 wbs_dat_o[25] 0.00399607
7 *602:11 wbs_dat_o[7] 0.00565575
8 *602:11 *605:11 0.00885777
9 *602:11 *607:15 0.000397657
10 *602:11 *620:25 0.00154272
11 *602:11 *624:9 0
12 *602:11 *626:9 0.00199985
13 *602:11 *628:13 0.00110387
14 *602:11 *631:9 5.49489e-05
15 *602:11 *633:25 0.0019662
16 *602:11 *644:15 0.00110099
17 *602:37 wbs_dat_o[30] 2.01732e-05
18 *602:37 *627:9 0.000138751
19 *547:27 *602:37 0.00907514
20 *549:11 *602:11 0.0136205
21 *560:11 *602:37 9.61175e-05
22 *571:11 *602:11 0.001105
23 *580:11 *602:37 9.62509e-05
24 *590:15 *602:11 0.00116041
25 *593:19 *602:11 0.00161277
26 *594:11 *602:11 5.04021e-05
27 *596:11 *602:11 0.000180163
28 *597:25 *602:37 0.00180917
29 *599:11 *602:11 0.000289077
30 *600:25 *602:37 0
*RES
1 wbs_dat_i[4] *602:9 6.48214 
2 *602:9 *602:11 417 
3 *602:11 *602:37 49.5363 
4 *602:37 *803:wbs_dat_i[4] 5.52679 
*END

*D_NET *603 0.0915868
*CONN
*P wbs_dat_i[5] I
*I *803:wbs_dat_i[5] I *D memory_macro
*CAP
1 wbs_dat_i[5] 0.0397898
2 *803:wbs_dat_i[5] 0.0397898
3 *803:wbs_dat_i[5] wbs_dat_o[1] 0.00389738
4 *803:wbs_dat_i[5] *604:21 0.000161078
5 *803:wbs_dat_i[5] *644:15 1.36114e-05
6 wbs_ack_o *803:wbs_dat_i[5] 7.4607e-05
7 *803:wbs_adr_i[20] *803:wbs_dat_i[5] 0.00287074
8 *547:27 *803:wbs_dat_i[5] 0.000245544
9 *560:11 *803:wbs_dat_i[5] 4.98422e-05
10 *576:17 *803:wbs_dat_i[5] 9.74583e-05
11 *580:11 *803:wbs_dat_i[5] 3.13654e-05
12 *597:25 *803:wbs_dat_i[5] 0.00456563
*RES
1 wbs_dat_i[5] *803:wbs_dat_i[5] 40.7338 
*END

*D_NET *604 0.155603
*CONN
*P wbs_dat_i[6] I
*I *803:wbs_dat_i[6] I *D memory_macro
*CAP
1 wbs_dat_i[6] 0.000304039
2 *803:wbs_dat_i[6] 0.00944217
3 *604:21 0.0327453
4 *604:11 0.0317269
5 *604:9 0.00872778
6 *604:11 wbs_dat_o[12] 0.007887
7 *604:11 *605:39 0.000643278
8 *604:11 *607:37 9.32361e-05
9 *604:11 *635:31 0.00718193
10 *604:11 *635:33 0.00308254
11 *604:11 *636:33 0.00130449
12 *604:11 *638:9 0.00152509
13 *604:11 *642:21 0.00366778
14 *604:11 *642:29 0.000354038
15 *604:21 *612:27 0.0183192
16 *803:wbs_adr_i[20] *803:wbs_dat_i[6] 0.000891009
17 *803:wbs_adr_i[20] *604:11 0.000917094
18 *803:wbs_dat_i[0] *604:11 0.00384925
19 *803:wbs_dat_i[5] *604:21 0.000161078
20 *544:55 *604:11 0.000657393
21 *547:19 *604:11 0.00130277
22 *553:17 *604:11 0.00342901
23 *560:11 *803:wbs_dat_i[6] 0.00443925
24 *573:11 *803:wbs_dat_i[6] 0.00096871
25 *577:29 *604:11 0.000609143
26 *580:11 *803:wbs_dat_i[6] 0.00251633
27 *580:11 *604:11 0.00597709
28 *582:25 *604:11 0.000657393
29 *584:15 *604:11 0.000528715
30 *588:27 *604:21 0
31 *598:17 *604:11 0.00110355
32 *601:33 *604:11 0.000590522
*RES
1 wbs_dat_i[6] *604:9 8.4725 
2 *604:9 *604:11 56.223 
3 *604:11 *604:21 31.9599 
4 *604:21 *803:wbs_dat_i[6] 41.5886 
*END

*D_NET *605 0.159129
*CONN
*P wbs_dat_i[7] I
*I *803:wbs_dat_i[7] I *D memory_macro
*CAP
1 wbs_dat_i[7] 7.60746e-05
2 *803:wbs_dat_i[7] 0.000344686
3 *605:39 0.024115
4 *605:11 0.0277916
5 *605:9 0.00409735
6 *803:wbs_dat_i[7] *639:9 0.00109881
7 *605:9 *644:15 4.19624e-06
8 *605:11 wbs_dat_o[7] 0.00391246
9 *605:11 *607:15 0.00469019
10 *605:11 *620:25 0.000592554
11 *605:11 *633:25 0.0210895
12 *605:39 *606:35 0.0252602
13 *605:39 *607:37 0
14 *605:39 *635:23 0.000229468
15 *605:39 *638:15 0.000198807
16 *803:wbs_adr_i[10] *605:39 0.00965561
17 *544:55 *605:39 0.0080239
18 *549:11 *605:11 0.0136142
19 *560:9 *605:39 0
20 *571:11 *605:11 0.00112146
21 *572:43 *605:39 0.000473919
22 *578:11 *803:wbs_dat_i[7] 0.000219809
23 *580:11 *605:39 0.000347262
24 *581:11 *803:wbs_dat_i[7] 0.00110363
25 *590:15 *605:11 0.000953445
26 *590:15 *605:39 0.000377008
27 *593:25 *803:wbs_dat_i[7] 0.000237025
28 *602:11 *605:11 0.00885777
29 *604:11 *605:39 0.000643278
*RES
1 wbs_dat_i[7] *605:9 5.66071 
2 *605:9 *605:11 277.768 
3 *605:11 *605:39 47.8461 
4 *605:39 *803:wbs_dat_i[7] 10.4445 
*END

*D_NET *606 0.165193
*CONN
*P wbs_dat_i[8] I
*I *803:wbs_dat_i[8] I *D memory_macro
*CAP
1 wbs_dat_i[8] 0.000166995
2 *803:wbs_dat_i[8] 0.00014275
3 *606:35 0.0388184
4 *606:11 0.0424443
5 *606:9 0.00393563
6 *606:11 wbs_dat_o[7] 0.000111763
7 *606:11 *607:15 0.00270734
8 *606:11 *610:9 0.000214519
9 *606:11 *620:25 0.000944962
10 *606:11 *621:9 0.000716757
11 *606:11 *623:9 0.000410773
12 *606:11 *634:27 0.00153781
13 *606:11 *636:33 0.000143439
14 *606:35 *635:31 0.000609143
15 *606:35 *636:33 0.000613972
16 *606:35 *639:9 4.98422e-05
17 *606:35 *643:27 2.1387e-05
18 *803:wbs_adr_i[10] *606:35 0.002087
19 *544:11 *606:11 0.0196994
20 *544:55 *606:35 0.000311995
21 *559:9 *606:35 0.000148707
22 *570:11 *606:11 0.0215466
23 *572:13 *606:11 0.002212
24 *581:11 *606:35 5.40377e-05
25 *591:11 *606:11 0.000283615
26 *605:39 *606:35 0.0252602
*RES
1 wbs_dat_i[8] *606:9 6.78571 
2 *606:9 *606:11 249.429 
3 *606:11 *606:35 49.0696 
4 *606:35 *803:wbs_dat_i[8] 5.29393 
*END

*D_NET *607 0.157802
*CONN
*P wbs_dat_i[9] I
*I *803:wbs_dat_i[9] I *D memory_macro
*CAP
1 wbs_dat_i[9] 0.000147191
2 *803:wbs_dat_i[9] 0.00414653
3 *607:37 0.0293065
4 *607:15 0.0289596
5 *607:13 0.00394685
6 *803:wbs_dat_i[9] *612:17 0.0108427
7 *803:wbs_dat_i[9] *615:17 0.00479029
8 *803:wbs_dat_i[9] *629:13 0.000981248
9 *803:wbs_dat_i[9] *637:17 0.00183671
10 *803:wbs_dat_i[9] *639:9 9.61175e-05
11 *607:15 wbs_dat_o[7] 0.000453481
12 *607:15 *620:25 0.00150455
13 *607:15 *623:9 0.000115263
14 *607:15 *624:9 0.000872896
15 *607:15 *633:25 0.017688
16 *607:37 wbs_dat_o[29] 0.0103086
17 *607:37 *635:23 0.0101743
18 *607:37 *638:9 9.80649e-05
19 *559:9 *607:15 0.000107754
20 *570:11 *607:15 0.0199993
21 *571:11 *607:15 0.00320093
22 *572:43 *607:37 0
23 *581:11 *803:wbs_dat_i[9] 0.000100938
24 *588:27 *607:37 0
25 *592:11 *607:15 0.000236083
26 *602:11 *607:15 0.000397657
27 *604:11 *607:37 9.32361e-05
28 *605:11 *607:15 0.00469019
29 *605:39 *607:37 0
30 *606:11 *607:15 0.00270734
*RES
1 wbs_dat_i[9] *607:13 6.82143 
2 *607:13 *607:15 258.464 
3 *607:15 *607:37 36.3539 
4 *607:37 *803:wbs_dat_i[9] 36.0636 
*END

*D_NET *608 0.0575326
*CONN
*P wbs_dat_o[0] O
*I *803:wbs_dat_o[0] O *D memory_macro
*CAP
1 wbs_dat_o[0] 0.000532148
2 *803:wbs_dat_o[0] 0.00460028
3 *608:9 0.00513243
4 *608:9 wbs_dat_o[9] 0.000339261
5 *608:9 *639:9 0.0013478
6 *608:9 *640:13 0.0256339
7 *608:9 *641:37 5.46816e-05
8 *543:15 *608:9 0.0198921
9 *581:9 *608:9 0
*RES
1 *803:wbs_dat_o[0] *608:9 47.5611 
2 *608:9 wbs_dat_o[0] 13.9368 
*END

*D_NET *609 0.21831
*CONN
*P wbs_dat_o[10] O
*I *803:wbs_dat_o[10] O *D memory_macro
*CAP
1 wbs_dat_o[10] 0.0111754
2 *803:wbs_dat_o[10] 0.0110452
3 *609:17 0.0428866
4 *609:15 0.0427564
5 wbs_dat_o[10] *745:10 0.000238685
6 wbs_dat_o[10] *788:25 0
7 *609:15 *622:17 4.98422e-05
8 *609:17 *803:cpu_mem_addr[1] 0
9 *609:17 *803:cpu_mem_addr[2] 0
10 *609:17 *803:cpu_mem_wdata[23] 0
11 *609:17 *803:cpu_mem_we[0] 4.8871e-05
12 *609:17 *803:cpu_mem_we[1] 4.6122e-05
13 *609:17 *685:18 0
14 *609:17 *789:17 0
15 *609:17 *790:17 0
16 *529:26 *609:17 0.000238759
17 *545:17 wbs_dat_o[10] 0
18 *545:19 *609:17 0.0934477
19 *552:21 *609:17 0.0162463
20 *571:11 wbs_dat_o[10] 5.11566e-05
21 *572:13 wbs_dat_o[10] 4.73891e-05
22 *581:11 *609:15 3.13654e-05
*RES
1 *803:wbs_dat_o[10] *609:15 43.7034 
2 *609:15 *609:17 146.919 
3 *609:17 wbs_dat_o[10] 45.9602 
*END

*D_NET *610 0.250444
*CONN
*P wbs_dat_o[11] O
*I *803:wbs_dat_o[11] O *D memory_macro
*CAP
1 wbs_dat_o[11] 0.000263269
2 *803:wbs_dat_o[11] 0.000736498
3 *610:9 0.0177752
4 *610:7 0.0182485
5 *610:9 wbs_dat_o[7] 0.000291747
6 *610:9 *613:9 0.00404978
7 *610:9 *617:9 0.00465869
8 *610:9 *618:9 0.0858243
9 *610:9 *621:9 0.0176617
10 *610:9 *627:9 0.00870659
11 *610:9 *636:33 0.0352409
12 *610:9 *638:9 0.0236187
13 *544:11 *610:9 0.000233689
14 *572:13 *610:9 0.0132938
15 *577:11 *610:9 0.00195058
16 *578:9 wbs_dat_o[11] 0
17 *582:11 *610:9 0.00190013
18 *591:11 *610:9 0.0157758
19 *606:11 *610:9 0.000214519
*RES
1 *803:wbs_dat_o[11] *610:7 14.4011 
2 *610:7 *610:9 156.432 
3 *610:9 wbs_dat_o[11] 6.24036 
*END

*D_NET *611 0.185874
*CONN
*P wbs_dat_o[12] O
*I *803:wbs_dat_o[12] O *D memory_macro
*CAP
1 wbs_dat_o[12] 0.00375199
2 *803:wbs_dat_o[12] 0.00561688
3 *611:31 0.0523288
4 *611:23 0.0541937
5 wbs_dat_o[12] *635:31 0.00243424
6 wbs_dat_o[12] *636:33 0.0170958
7 wbs_dat_o[12] *643:11 0.00331413
8 *611:23 *612:17 0.00820725
9 *611:23 *615:17 0.00270859
10 *611:23 *622:17 0.00290168
11 *611:23 *625:9 0.000558904
12 *803:wbs_dat_i[12] *611:23 0.000382342
13 *544:55 *611:31 0.0101316
14 *577:29 wbs_dat_o[12] 0.000613972
15 *581:11 *611:23 0.00146361
16 *589:11 wbs_dat_o[12] 0.000248082
17 *600:25 *611:31 0.0120357
18 *604:11 wbs_dat_o[12] 0.007887
*RES
1 *803:wbs_dat_o[12] *611:23 41.2361 
2 *611:23 *611:31 27.3255 
3 *611:31 wbs_dat_o[12] 34.078 
*END

*D_NET *612 0.217591
*CONN
*P wbs_dat_o[13] O
*I *803:wbs_dat_o[13] O *D memory_macro
*CAP
1 wbs_dat_o[13] 0.00979908
2 *803:wbs_dat_o[13] 0.000621259
3 *612:27 0.048291
4 *612:17 0.0482576
5 *612:15 0.010387
6 *612:15 *622:17 0.00174227
7 *612:15 *625:9 0.000379297
8 *612:17 *615:17 0.0051449
9 *612:17 *629:13 0.0421282
10 *803:wbs_dat_i[9] *612:17 0.0108427
11 *548:17 wbs_dat_o[13] 0
12 *549:33 *612:27 0.0119746
13 *571:11 wbs_dat_o[13] 5.11566e-05
14 *572:13 wbs_dat_o[13] 4.73891e-05
15 *581:11 *612:15 0.00103861
16 *593:25 *612:15 0.000359554
17 *604:21 *612:27 0.0183192
18 *611:23 *612:17 0.00820725
*RES
1 *803:wbs_dat_o[13] *612:15 14.7294 
2 *612:15 *612:17 67.069 
3 *612:17 *612:27 37.8183 
4 *612:27 wbs_dat_o[13] 32.5361 
*END

*D_NET *613 0.207923
*CONN
*P wbs_dat_o[14] O
*I *803:wbs_dat_o[14] O *D memory_macro
*CAP
1 wbs_dat_o[14] 0.000456426
2 *803:wbs_dat_o[14] 0.000633431
3 *613:9 0.0303325
4 *613:7 0.0305095
5 *613:9 wbs_dat_o[29] 0
6 *613:9 *617:9 0.105057
7 *613:9 *627:9 0.000333271
8 *613:9 *636:33 0.00516852
9 *613:9 *638:9 0.00809375
10 *613:9 *643:11 0.00615279
11 *577:11 *613:9 0.00044272
12 *582:11 *613:9 0.00296408
13 *589:11 *613:9 0.0137296
14 *589:27 *613:9 0
15 *590:17 *613:9 0
16 *610:9 *613:9 0.00404978
*RES
1 *803:wbs_dat_o[14] *613:7 14.4286 
2 *613:7 *613:9 1048.68 
3 *613:9 wbs_dat_o[14] 8.60714 
*END

*D_NET *614 0.323391
*CONN
*P wbs_dat_o[15] O
*I *803:wbs_dat_o[15] O *D memory_macro
*CAP
1 wbs_dat_o[15] 0.011326
2 *803:wbs_dat_o[15] 0.0109131
3 *614:17 0.0381303
4 *614:15 0.0377174
5 *614:15 *622:17 0.00199685
6 *614:15 *625:9 0.000440271
7 *614:17 *803:cpu_mem_wdata[3] 0
8 *614:17 *752:25 9.2692e-05
9 *614:17 *753:21 9.2692e-05
10 *614:17 *754:19 0.00125734
11 *614:17 *786:22 0.00968112
12 *803:wbs_dat_i[15] *614:15 0
13 *546:19 *614:17 0.0886631
14 *546:31 *614:17 0.00279655
15 *547:25 wbs_dat_o[15] 0
16 *550:17 wbs_dat_o[15] 0
17 *550:19 *614:17 0.118825
18 *571:11 wbs_dat_o[15] 0.000144966
19 *572:13 wbs_dat_o[15] 0.000140137
20 *583:11 *614:15 0.000757481
21 *593:25 *614:15 0.000416099
*RES
1 *803:wbs_dat_o[15] *614:15 46.4826 
2 *614:15 *614:17 190.447 
3 *614:17 wbs_dat_o[15] 45.7848 
*END

*D_NET *615 0.192122
*CONN
*P wbs_dat_o[16] O
*I *803:wbs_dat_o[16] O *D memory_macro
*CAP
1 wbs_dat_o[16] 0.0012627
2 *803:wbs_dat_o[16] 0.000600801
3 *615:17 0.0396978
4 *615:15 0.0390359
5 wbs_dat_o[16] *634:25 9.06546e-05
6 wbs_dat_o[16] *639:9 9.40633e-05
7 *615:15 *622:17 9.51694e-05
8 *615:17 *629:13 0.0036241
9 *615:17 *636:25 0.00747818
10 *615:17 *637:17 0.00130259
11 *615:17 *641:37 0.00215092
12 *615:17 *643:27 0.00688662
13 *803:wbs_dat_i[9] *615:17 0.00479029
14 *548:19 *615:17 0.00238904
15 *553:19 *615:17 0.063302
16 *572:29 *615:17 0.0111041
17 *584:15 wbs_dat_o[16] 0.000334265
18 *585:11 *615:15 2.92862e-05
19 *611:23 *615:17 0.00270859
20 *612:17 *615:17 0.0051449
*RES
1 *803:wbs_dat_o[16] *615:15 12.5612 
2 *615:15 *615:17 202.554 
3 *615:17 wbs_dat_o[16] 23.7225 
*END

*D_NET *616 0.316359
*CONN
*P wbs_dat_o[17] O
*I *803:wbs_dat_o[17] O *D memory_macro
*CAP
1 wbs_dat_o[17] 0.00101469
2 *803:wbs_dat_o[17] 0.000828492
3 *616:21 0.00782937
4 *616:19 0.00722833
5 *616:13 0.0180137
6 *616:11 0.0184286
7 *616:11 *622:9 0.00237952
8 *616:11 *625:9 0.000532394
9 *616:11 *629:13 1.08706e-05
10 *616:13 *622:17 0.0961788
11 *616:13 *629:13 0.0937255
12 *616:13 *637:17 0.00132039
13 *616:21 wbs_dat_o[1] 0.000184098
14 *616:21 *622:31 0.0254321
15 *616:21 *630:13 0.00149582
16 *616:21 *634:11 0.033852
17 *616:21 *637:31 0.000311949
18 *616:21 *639:9 0.00354542
19 *616:21 *641:37 0.0010893
20 *552:17 wbs_dat_o[17] 0.000448348
21 *571:11 wbs_dat_o[17] 0.000288541
22 *572:13 wbs_dat_o[17] 0.000283712
23 *572:29 *616:21 4.73953e-05
24 *577:29 wbs_dat_o[17] 0.000716929
25 *585:11 *616:11 0.000670974
26 *593:25 *616:11 0.000501532
*RES
1 *803:wbs_dat_o[17] *616:11 8.84942 
2 *616:11 *616:13 153.405 
3 *616:13 *616:19 7.15527 
4 *616:19 *616:21 54.097 
5 *616:21 wbs_dat_o[17] 14.5564 
*END

*D_NET *617 0.305605
*CONN
*P wbs_dat_o[18] O
*I *803:wbs_dat_o[18] O *D memory_macro
*CAP
1 wbs_dat_o[18] 0.000339597
2 *803:wbs_dat_o[18] 0.000621682
3 *617:9 0.0215513
4 *617:7 0.0218333
5 *617:9 *621:9 0.129195
6 *617:9 *627:9 0.00540333
7 *617:9 *636:33 0.0038258
8 *617:9 *638:9 0.00872765
9 *544:11 *617:9 0.000336737
10 *582:11 *617:9 0.00405504
11 *585:9 wbs_dat_o[18] 0
12 *589:27 *617:9 0
13 *610:9 *617:9 0.00465869
14 *613:9 *617:9 0.105057
*RES
1 *803:wbs_dat_o[18] *617:7 14.7321 
2 *617:7 *617:9 1263.48 
3 *617:9 wbs_dat_o[18] 8.08929 
*END

*D_NET *618 0.363277
*CONN
*P wbs_dat_o[19] O
*I *803:wbs_dat_o[19] O *D memory_macro
*CAP
1 wbs_dat_o[19] 0.000272688
2 *803:wbs_dat_o[19] 0.000726059
3 *618:9 0.0264512
4 *618:7 0.0269046
5 wbs_dat_o[19] *633:23 0
6 *618:9 wbs_dat_o[31] 0.00142444
7 *618:9 wbs_dat_o[7] 0.000531729
8 *618:9 *620:9 0.125231
9 *618:9 *620:25 0.0185543
10 *618:9 *623:9 0.0307
11 *618:9 *624:9 0.000149353
12 *618:9 *626:9 0.000473245
13 *618:9 *627:9 0.0171569
14 *803:wbs_adr_i[20] *618:9 9.61096e-05
15 *544:11 *618:9 0.000424028
16 *592:11 *618:9 0.0280556
17 *594:11 *618:9 0.00016105
18 *600:25 *618:9 0.000140137
19 *610:9 *618:9 0.0858243
*RES
1 *803:wbs_dat_o[19] *618:7 15.0082 
2 *618:7 *618:9 230.732 
3 *618:9 wbs_dat_o[19] 5.43679 
*END

*D_NET *619 0.0559405
*CONN
*P wbs_dat_o[1] O
*I *803:wbs_dat_o[1] O *D memory_macro
*CAP
1 wbs_dat_o[1] 0.0252489
2 *803:wbs_dat_o[1] 0.0252489
3 wbs_dat_o[1] *639:9 0.000186675
4 *803:wbs_dat_i[5] wbs_dat_o[1] 0.00389738
5 *541:37 wbs_dat_o[1] 0.000565032
6 *576:17 wbs_dat_o[1] 1.83329e-05
7 *587:11 wbs_dat_o[1] 0
8 *601:33 wbs_dat_o[1] 0.000591123
9 *616:21 wbs_dat_o[1] 0.000184098
*RES
1 *803:wbs_dat_o[1] wbs_dat_o[1] 28.1245 
*END

*D_NET *620 0.413178
*CONN
*P wbs_dat_o[20] O
*I *803:wbs_dat_o[20] O *D memory_macro
*CAP
1 wbs_dat_o[20] 0.000275633
2 *803:wbs_dat_o[20] 0.000761544
3 *620:25 0.00702961
4 *620:9 0.0258753
5 *620:7 0.0198828
6 *620:9 *624:9 0.0291945
7 *620:9 *626:9 0.133026
8 *620:9 *627:9 0.00152973
9 *620:25 wbs_dat_o[25] 0.000204012
10 *620:25 wbs_dat_o[31] 3.47641e-06
11 *620:25 *624:9 0.00221512
12 *620:25 *626:9 0.0104749
13 *620:25 *631:9 0.000980076
14 *549:11 *620:25 0.000515104
15 *570:11 *620:25 0.000103646
16 *590:15 *620:25 0.00246507
17 *593:19 *620:25 0.00135641
18 *594:11 *620:9 0.0270663
19 *594:11 *620:25 0.00130038
20 *599:11 *620:25 0.000528418
21 *600:25 *620:25 2.03618e-05
22 *602:11 *620:25 0.00154272
23 *605:11 *620:25 0.000592554
24 *606:11 *620:25 0.000944962
25 *607:15 *620:25 0.00150455
26 *618:9 *620:9 0.125231
27 *618:9 *620:25 0.0185543
*RES
1 *803:wbs_dat_o[20] *620:7 15.6154 
2 *620:7 *620:9 207.095 
3 *620:9 *620:25 49.275 
4 *620:25 wbs_dat_o[20] 5.11536 
*END

*D_NET *621 0.342045
*CONN
*P wbs_dat_o[21] O
*I *803:wbs_dat_o[21] O *D memory_macro
*CAP
1 wbs_dat_o[21] 0.000329407
2 *803:wbs_dat_o[21] 0.000627096
3 *621:9 0.0220692
4 *621:7 0.0223669
5 *621:9 *627:9 0.000345194
6 *544:11 *621:9 3.32631e-05
7 *544:55 wbs_dat_o[21] 3.42164e-05
8 *589:27 *621:9 0
9 *590:17 *621:9 0
10 *591:11 *621:9 0.148666
11 *606:11 *621:9 0.000716757
12 *610:9 *621:9 0.0176617
13 *617:9 *621:9 0.129195
*RES
1 *803:wbs_dat_o[21] *621:7 15.0357 
2 *621:7 *621:9 1420.79 
3 *621:9 wbs_dat_o[21] 8 
*END

*D_NET *622 0.385017
*CONN
*P wbs_dat_o[22] O
*I *803:wbs_dat_o[22] O *D memory_macro
*CAP
1 wbs_dat_o[22] 0.000948116
2 *803:wbs_dat_o[22] 4.45274e-05
3 *622:31 0.0057759
4 *622:27 0.00515743
5 *622:17 0.0196881
6 *622:15 0.019509
7 *622:9 0.0149602
8 *622:7 0.0148542
9 *622:9 *625:9 0.00717958
10 *622:9 *629:13 0.0213494
11 *622:9 *632:13 0.00826306
12 *622:17 *625:9 0.00906358
13 *622:17 *632:13 0.0196847
14 *622:17 *637:17 5.85513e-06
15 *622:17 *639:9 0.0379089
16 *622:27 *634:9 7.75483e-06
17 *622:31 *630:13 0.0010272
18 *622:31 *632:13 0.0017135
19 *622:31 *639:9 0.0254408
20 *803:wbs_adr_i[10] *622:17 4.98422e-05
21 *803:wbs_adr_i[11] *622:17 0.000461193
22 *803:wbs_adr_i[13] *622:17 9.51694e-05
23 *803:wbs_adr_i[14] *622:17 9.51694e-05
24 *803:wbs_adr_i[16] *622:17 4.98422e-05
25 *803:wbs_adr_i[17] *622:17 4.98422e-05
26 *803:wbs_adr_i[18] *622:9 0.00208337
27 *803:wbs_adr_i[19] *622:9 9.51694e-05
28 *803:wbs_adr_i[20] *622:9 0.000369687
29 *803:wbs_dat_i[10] *622:17 0.00477258
30 *803:wbs_dat_i[12] *622:17 0.00404758
31 *803:wbs_dat_i[15] *622:17 4.98422e-05
32 *803:wbs_dat_i[17] *622:17 0.00109469
33 *546:31 *622:17 0.000598446
34 *556:11 *622:9 0.00234847
35 *557:11 *622:9 0.00259596
36 *560:11 *622:9 0
37 *581:11 *622:17 0.00668114
38 *583:11 *622:17 0.00372575
39 *585:11 *622:9 0.000605397
40 *585:11 *622:17 0.00123643
41 *586:15 *622:9 0
42 *588:51 *622:9 4.98422e-05
43 *593:25 *622:9 0.00705992
44 *593:25 *622:17 0.00344337
45 *595:27 *622:9 0
46 *609:15 *622:17 4.98422e-05
47 *611:23 *622:17 0.00290168
48 *612:15 *622:17 0.00174227
49 *614:15 *622:17 0.00199685
50 *615:15 *622:17 9.51694e-05
51 *616:11 *622:9 0.00237952
52 *616:13 *622:17 0.0961788
53 *616:21 *622:31 0.0254321
*RES
1 *803:wbs_dat_o[22] *622:7 4.07964 
2 *622:7 *622:9 64.3305 
3 *622:9 *622:15 8.17714 
4 *622:15 *622:17 153.333 
5 *622:17 *622:27 10.0521 
6 *622:27 *622:31 44.0305 
7 *622:31 wbs_dat_o[22] 12.9554 
*END

*D_NET *623 0.392841
*CONN
*P wbs_dat_o[23] O
*I *803:wbs_dat_o[23] O *D memory_macro
*CAP
1 wbs_dat_o[23] 0.000215031
2 *803:wbs_dat_o[23] 0.000629574
3 *623:9 0.0194067
4 *623:7 0.0198212
5 *591:11 *623:9 0.160049
6 *592:11 *623:9 0.161494
7 *606:11 *623:9 0.000410773
8 *607:15 *623:9 0.000115263
9 *618:9 *623:9 0.0307
*RES
1 *803:wbs_dat_o[23] *623:7 15.6429 
2 *623:7 *623:9 1527.57 
3 *623:9 wbs_dat_o[23] 6.98214 
*END

*D_NET *624 0.406199
*CONN
*P wbs_dat_o[24] O
*I *803:wbs_dat_o[24] O *D memory_macro
*CAP
1 wbs_dat_o[24] 0.000220055
2 *803:wbs_dat_o[24] 0.000652837
3 *624:9 0.0201822
4 *624:7 0.0206149
5 *624:9 wbs_dat_o[25] 0.000133775
6 *624:9 wbs_dat_o[31] 0.00030308
7 *624:9 *626:9 0.00044545
8 *592:11 *624:9 0.165784
9 *594:11 *624:9 0.165431
10 *602:11 *624:9 0
11 *607:15 *624:9 0.000872896
12 *618:9 *624:9 0.000149353
13 *620:9 *624:9 0.0291945
14 *620:25 *624:9 0.00221512
*RES
1 *803:wbs_dat_o[24] *624:7 16.25 
2 *624:7 *624:9 1580.14 
3 *624:9 wbs_dat_o[24] 6.78571 
*END

*D_NET *625 0.350794
*CONN
*P wbs_dat_o[25] O
*I *803:wbs_dat_o[25] O *D memory_macro
*CAP
1 wbs_dat_o[25] 0.000935627
2 *803:wbs_dat_o[25] 5.03036e-05
3 *625:15 0.00166709
4 *625:9 0.0274684
5 *625:7 0.0267873
6 wbs_dat_o[25] *626:9 0.000111763
7 *625:9 *629:13 0.00240118
8 *625:9 *632:13 0.161269
9 *625:9 *633:9 0.00582661
10 *625:9 *639:9 0.0102025
11 *803:wbs_adr_i[18] *625:9 0.000460595
12 *803:wbs_dat_i[10] *625:9 0.00103631
13 *803:wbs_dat_i[17] *625:9 0.000237025
14 *546:31 *625:9 0.000125261
15 *561:11 *625:9 0
16 *563:9 *625:15 0.000646754
17 *578:11 *625:9 0.00193708
18 *583:11 *625:9 0.000680495
19 *593:19 wbs_dat_o[25] 0.000496184
20 *593:25 *625:9 0.0851276
21 *594:11 wbs_dat_o[25] 0.000838714
22 *602:11 wbs_dat_o[25] 0.00399607
23 *611:23 *625:9 0.000558904
24 *612:15 *625:9 0.000379297
25 *614:15 *625:9 0.000440271
26 *616:11 *625:9 0.000532394
27 *620:25 wbs_dat_o[25] 0.000204012
28 *622:9 *625:9 0.00717958
29 *622:17 *625:9 0.00906358
30 *624:9 wbs_dat_o[25] 0.000133775
*RES
1 *803:wbs_dat_o[25] *625:7 5.32143 
2 *625:7 *625:9 1596.16 
3 *625:9 *625:15 21.5714 
4 *625:15 wbs_dat_o[25] 43.9821 
*END

*D_NET *626 0.372931
*CONN
*P wbs_dat_o[26] O
*I *803:wbs_dat_o[26] O *D memory_macro
*CAP
1 wbs_dat_o[26] 0.000151258
2 *803:wbs_dat_o[26] 0.00070742
3 *626:9 0.0699179
4 *626:7 0.070474
5 *626:9 wbs_dat_o[31] 0.00142732
6 *626:9 *627:9 0
7 *626:9 *628:13 0.0379135
8 *626:9 *631:9 0.000345474
9 wbs_dat_o[25] *626:9 0.000111763
10 *593:19 *626:9 0.00191423
11 *594:11 *626:9 0.00209566
12 *596:11 *626:9 0.0410353
13 *599:11 *626:9 0.000273261
14 *600:25 *626:9 0.000144966
15 *602:11 *626:9 0.00199985
16 *618:9 *626:9 0.000473245
17 *620:9 *626:9 0.133026
18 *620:25 *626:9 0.0104749
19 *624:9 *626:9 0.00044545
*RES
1 *803:wbs_dat_o[26] *626:7 16.2225 
2 *626:7 *626:9 296.025 
3 *626:9 wbs_dat_o[26] 4.70464 
*END

*D_NET *627 0.292273
*CONN
*P wbs_dat_o[27] O
*I *803:wbs_dat_o[27] O *D memory_macro
*CAP
1 wbs_dat_o[27] 0.00042145
2 *803:wbs_dat_o[27] 0.000483702
3 *627:9 0.0676491
4 *627:7 0.0677114
5 *627:9 wbs_dat_o[29] 0.000244417
6 *627:9 *638:9 0.0482379
7 *803:wbs_adr_i[20] *627:9 0.0158236
8 *549:37 *627:9 0.0156112
9 *560:11 *627:9 0
10 *580:11 *627:9 0.0190886
11 *589:27 *627:9 0.0195565
12 *590:17 *627:9 0.0027692
13 *591:11 *627:9 0.000786378
14 *593:19 wbs_dat_o[27] 0.000221078
15 *595:27 *627:9 0
16 *597:25 *627:9 5.46816e-05
17 *602:37 *627:9 0.000138751
18 *610:9 *627:9 0.00870659
19 *613:9 *627:9 0.000333271
20 *617:9 *627:9 0.00540333
21 *618:9 *627:9 0.0171569
22 *620:9 *627:9 0.00152973
23 *621:9 *627:9 0.000345194
24 *626:9 *627:9 0
*RES
1 *803:wbs_dat_o[27] *627:7 12.5796 
2 *627:7 *627:9 305.249 
3 *627:9 wbs_dat_o[27] 8.27607 
*END

*D_NET *628 0.460673
*CONN
*P wbs_dat_o[28] O
*I *803:wbs_dat_o[28] O *D memory_macro
*CAP
1 wbs_dat_o[28] 0.000199256
2 *803:wbs_dat_o[28] 0.000695043
3 *628:13 0.0228474
4 *628:11 0.0233432
5 *596:11 *628:13 0.186518
6 *599:11 *628:13 0.188053
7 *602:11 *628:13 0.00110387
8 *626:9 *628:13 0.0379135
*RES
1 *803:wbs_dat_o[28] *628:11 18.2321 
2 *628:11 *628:13 1792.07 
3 *628:13 wbs_dat_o[28] 6.48214 
*END

*D_NET *629 0.421666
*CONN
*P wbs_dat_o[29] O
*I *803:wbs_dat_o[29] O *D memory_macro
*CAP
1 wbs_dat_o[29] 0.0139062
2 *803:wbs_dat_o[29] 0.000956816
3 *629:13 0.0623889
4 *629:11 0.0494395
5 *629:11 *632:13 0.000571967
6 *629:13 *632:13 0.00903583
7 *629:13 *637:17 0.0201133
8 *803:wbs_dat_i[29] *629:13 0.000946683
9 *803:wbs_dat_i[9] *629:13 0.000981248
10 *553:19 *629:13 0
11 *562:43 *629:13 2.14879e-05
12 *580:11 wbs_dat_o[29] 0.000233052
13 *589:25 wbs_dat_o[29] 0
14 *590:17 wbs_dat_o[29] 0.00040381
15 *595:27 *629:13 0
16 *597:27 *629:13 0.0888748
17 *607:37 wbs_dat_o[29] 0.0103086
18 *612:17 *629:13 0.0421282
19 *613:9 wbs_dat_o[29] 0
20 *615:17 *629:13 0.0036241
21 *616:11 *629:13 1.08706e-05
22 *616:13 *629:13 0.0937255
23 *622:9 *629:13 0.0213494
24 *625:9 *629:13 0.00240118
25 *627:9 wbs_dat_o[29] 0.000244417
*RES
1 *803:wbs_dat_o[29] *629:11 6.65681 
2 *629:11 *629:13 296.241 
3 *629:13 wbs_dat_o[29] 41.877 
*END

*D_NET *630 0.0657931
*CONN
*P wbs_dat_o[2] O
*I *803:wbs_dat_o[2] O *D memory_macro
*CAP
1 wbs_dat_o[2] 0.000539918
2 *803:wbs_dat_o[2] 8.85719e-05
3 *630:21 0.00722436
4 *630:19 0.00690817
5 *630:13 0.00571233
6 *630:11 0.00557718
7 wbs_dat_o[2] *642:21 0
8 *630:13 *633:9 0.000409828
9 *630:13 *634:25 0.0004184
10 *630:13 *639:9 0.000132841
11 *630:13 *641:37 0.000219809
12 *803:wbs_adr_i[2] *630:13 0.000973959
13 *554:11 *630:21 0.00519577
14 *565:19 *630:21 0.00199695
15 *568:11 *630:21 0.0229735
16 *583:9 *630:19 2.94034e-05
17 *601:35 *630:13 0.00486913
18 *616:21 *630:13 0.00149582
19 *622:31 *630:13 0.0010272
*RES
1 *803:wbs_dat_o[2] *630:11 5.98214 
2 *630:11 *630:13 148.804 
3 *630:13 *630:19 12.7679 
4 *630:19 *630:21 226.018 
5 *630:21 wbs_dat_o[2] 14.375 
*END

*D_NET *631 0.324188
*CONN
*P wbs_dat_o[30] O
*I *803:wbs_dat_o[30] O *D memory_macro
*CAP
1 wbs_dat_o[30] 0.000173292
2 *803:wbs_dat_o[30] 0.000664524
3 *631:9 0.0622852
4 *631:7 0.0627764
5 *599:11 *631:9 0.196887
6 *602:11 *631:9 5.49489e-05
7 *602:37 wbs_dat_o[30] 2.01732e-05
8 *620:25 *631:9 0.000980076
9 *626:9 *631:9 0.000345474
*RES
1 *803:wbs_dat_o[30] *631:7 17.7679 
2 *631:7 *631:9 1899.68 
3 *631:9 wbs_dat_o[30] 6.07143 
*END

*D_NET *632 0.346665
*CONN
*P wbs_dat_o[31] O
*I *803:wbs_dat_o[31] O *D memory_macro
*CAP
1 wbs_dat_o[31] 0.00135925
2 *803:wbs_dat_o[31] 6.34925e-05
3 *632:13 0.0709098
4 *632:11 0.069614
5 *803:wbs_dat_i[29] *632:13 0.000741193
6 *561:11 *632:13 0
7 *563:11 *632:13 0
8 *594:11 wbs_dat_o[31] 0.000281067
9 *618:9 wbs_dat_o[31] 0.00142444
10 *620:25 wbs_dat_o[31] 3.47641e-06
11 *622:9 *632:13 0.00826306
12 *622:17 *632:13 0.0196847
13 *622:31 *632:13 0.0017135
14 *624:9 wbs_dat_o[31] 0.00030308
15 *625:9 *632:13 0.161269
16 *626:9 wbs_dat_o[31] 0.00142732
17 *629:11 *632:13 0.000571967
18 *629:13 *632:13 0.00903583
*RES
1 *803:wbs_dat_o[31] *632:11 5.98214 
2 *632:11 *632:13 1939.52 
3 *632:13 wbs_dat_o[31] 27.0469 
*END

*D_NET *633 0.0997114
*CONN
*P wbs_dat_o[3] O
*I *803:wbs_dat_o[3] O *D memory_macro
*CAP
1 wbs_dat_o[3] 0.000107033
2 *803:wbs_dat_o[3] 8.04041e-05
3 *633:25 0.0045406
4 *633:23 0.0049775
5 *633:17 0.00290283
6 *633:15 0.00259332
7 *633:9 0.00231558
8 *633:7 0.00216155
9 *633:9 *639:9 0.00223343
10 *633:25 wbs_dat_o[7] 0.000367307
11 *633:25 *634:27 8.69889e-05
12 *633:25 *641:15 0.000407528
13 wbs_ack_o *633:25 0.000351974
14 wbs_dat_o[19] *633:23 0
15 *556:11 *633:17 0
16 *557:11 *633:17 0
17 *558:11 *633:17 0.000196196
18 *559:11 *633:17 0.000554186
19 *565:19 *633:17 0.000355733
20 *568:11 *633:17 0.00911792
21 *570:11 *633:25 0.00404048
22 *571:11 *633:25 0.00296844
23 *572:13 *633:25 0.000724331
24 *576:17 *633:25 0.000245287
25 *578:11 *633:9 0.00135214
26 *579:29 *633:23 0.000220214
27 *585:11 *633:17 0.00012546
28 *586:15 *633:17 0.00162084
29 *601:35 *633:9 0.00808403
30 *602:11 *633:25 0.0019662
31 *605:11 *633:25 0.0210895
32 *607:15 *633:25 0.017688
33 *625:9 *633:9 0.00582661
34 *630:13 *633:9 0.000409828
*RES
1 *803:wbs_dat_o[3] *633:7 5.625 
2 *633:7 *633:9 99.5179 
3 *633:9 *633:15 12.1607 
4 *633:15 *633:17 85.9643 
5 *633:17 *633:23 17.625 
6 *633:23 *633:25 260.518 
7 *633:25 wbs_dat_o[3] 6.48214 
*END

*D_NET *634 0.121511
*CONN
*P wbs_dat_o[4] O
*I *803:wbs_dat_o[4] O *D memory_macro
*CAP
1 wbs_dat_o[4] 0.000177072
2 *803:wbs_dat_o[4] 0.000164417
3 *634:27 0.00468203
4 *634:25 0.00658422
5 *634:11 0.0089055
6 *634:9 0.00699065
7 *634:11 *637:17 0.0289984
8 *634:11 *638:21 0.00297589
9 *634:11 *639:9 0.000236324
10 *634:25 *638:21 0.00132527
11 *634:25 *639:9 0.00216268
12 *634:27 *641:15 0.000527694
13 *634:27 *643:11 0
14 wbs_dat_o[16] *634:25 9.06546e-05
15 *544:11 *634:27 0.00855069
16 *570:11 *634:27 0.00219344
17 *572:13 *634:27 0.00301613
18 *577:11 *634:27 0.00802722
19 *606:11 *634:27 0.00153781
20 *616:21 *634:11 0.033852
21 *622:27 *634:9 7.75483e-06
22 *630:13 *634:25 0.0004184
23 *633:25 *634:27 8.69889e-05
*RES
1 *803:wbs_dat_o[4] *634:9 4.33971 
2 *634:9 *634:11 55.2861 
3 *634:11 *634:25 25.4313 
4 *634:25 *634:27 167.286 
5 *634:27 wbs_dat_o[4] 7.17857 
*END

*D_NET *635 0.129322
*CONN
*P wbs_dat_o[5] O
*I *803:wbs_dat_o[5] O *D memory_macro
*CAP
1 wbs_dat_o[5] 0.000375677
2 *803:wbs_dat_o[5] 0.0146585
3 *635:33 0.0102509
4 *635:31 0.0113484
5 *635:23 0.0161317
6 wbs_dat_o[5] *645:23 0
7 *635:23 *638:15 0.000827273
8 *635:23 *639:9 0.0131378
9 *635:31 *636:33 0.00211724
10 *635:31 *643:11 0.00054982
11 *635:33 *643:11 0
12 wbs_dat_o[12] *635:31 0.00243424
13 *803:wbs_adr_i[20] *635:31 0.000583236
14 *803:wbs_dat_i[0] *635:33 0.000186783
15 *547:19 *635:33 0.00172701
16 *549:25 *635:31 0.000327739
17 *553:17 *635:33 0.000423238
18 *556:9 *635:31 6.83964e-05
19 *569:11 *635:33 0
20 *570:17 *635:31 0
21 *576:17 wbs_dat_o[5] 0
22 *578:11 *635:23 0.00257273
23 *579:11 *635:33 0.0125334
24 *581:11 *635:23 0.0131426
25 *582:25 *635:31 0.000103838
26 *584:15 *635:33 0.000169615
27 *588:11 *635:33 0.00100708
28 *589:11 *635:31 0.000592882
29 *593:25 *635:23 0.00277422
30 *604:11 *635:31 0.00718193
31 *604:11 *635:33 0.00308254
32 *605:39 *635:23 0.000229468
33 *606:35 *635:31 0.000609143
34 *607:37 *635:23 0.0101743
*RES
1 *803:wbs_dat_o[5] *635:23 47.9297 
2 *635:23 *635:31 21.0301 
3 *635:31 *635:33 242.036 
4 *635:33 wbs_dat_o[5] 10.625 
*END

*D_NET *636 0.162956
*CONN
*P wbs_dat_o[6] O
*I *803:wbs_dat_o[6] O *D memory_macro
*CAP
1 wbs_dat_o[6] 0.000215957
2 *803:wbs_dat_o[6] 0.000536026
3 *636:33 0.00835881
4 *636:31 0.00875363
5 *636:25 0.00725386
6 *636:15 0.00717911
7 *636:15 *639:9 9.61175e-05
8 *636:25 *637:17 0.0254423
9 *636:25 *639:9 4.73953e-05
10 *636:25 *643:27 0.00263204
11 *636:33 *638:9 0.0113446
12 *636:33 *641:15 0.00802966
13 *636:33 *642:21 0.00700879
14 *636:33 *643:11 0.00157072
15 wbs_dat_o[12] *636:33 0.0170958
16 *549:25 *636:33 0.000332568
17 *570:11 *636:33 0.000105257
18 *572:13 *636:33 0.000286188
19 *577:11 *636:33 0.000335334
20 *581:11 *636:15 0.000100938
21 *581:11 *636:25 5.11642e-05
22 *589:11 *636:33 0.000216149
23 *600:25 *636:25 7.09058e-05
24 *604:11 *636:33 0.00130449
25 *606:11 *636:33 0.000143439
26 *606:35 *636:33 0.000613972
27 *610:9 *636:33 0.0352409
28 *613:9 *636:33 0.00516852
29 *615:17 *636:25 0.00747818
30 *617:9 *636:33 0.0038258
31 *635:31 *636:33 0.00211724
*RES
1 *803:wbs_dat_o[6] *636:15 12.9552 
2 *636:15 *636:25 48.1377 
3 *636:25 *636:31 15.445 
4 *636:31 *636:33 68.7265 
5 *636:33 wbs_dat_o[6] 7.06179 
*END

*D_NET *637 0.172205
*CONN
*P wbs_dat_o[7] O
*I *803:wbs_dat_o[7] O *D memory_macro
*CAP
1 wbs_dat_o[7] 0.0075471
2 *803:wbs_dat_o[7] 0.00047295
3 *637:31 0.00870601
4 *637:17 0.0118823
5 *637:15 0.0111963
6 *637:15 *639:9 9.61175e-05
7 *637:17 *638:21 0.00758017
8 *637:17 *639:9 1.41952e-05
9 *637:17 *643:27 0.00583977
10 *637:31 *639:9 0.000315253
11 *637:31 *641:37 0.000143889
12 *803:wbs_adr_i[20] wbs_dat_o[7] 5.85882e-05
13 *803:wbs_dat_i[9] *637:17 0.00183671
14 *549:11 wbs_dat_o[7] 0.00199791
15 *570:11 wbs_dat_o[7] 0.000574774
16 *571:11 wbs_dat_o[7] 0.0198384
17 *572:13 wbs_dat_o[7] 0.00518465
18 *581:11 *637:15 0.000100938
19 *588:9 *637:31 0
20 *602:11 wbs_dat_o[7] 0.00565575
21 *605:11 wbs_dat_o[7] 0.00391246
22 *606:11 wbs_dat_o[7] 0.000111763
23 *607:15 wbs_dat_o[7] 0.000453481
24 *610:9 wbs_dat_o[7] 0.000291747
25 *615:17 *637:17 0.00130259
26 *616:13 *637:17 0.00132039
27 *616:21 *637:31 0.000311949
28 *618:9 wbs_dat_o[7] 0.000531729
29 *622:17 *637:17 5.85513e-06
30 *629:13 *637:17 0.0201133
31 *633:25 wbs_dat_o[7] 0.000367307
32 *634:11 *637:17 0.0289984
33 *636:25 *637:17 0.0254423
*RES
1 *803:wbs_dat_o[7] *637:15 12.8487 
2 *637:15 *637:17 82.4913 
3 *637:17 *637:31 27.397 
4 *637:31 wbs_dat_o[7] 48.6309 
*END

*D_NET *638 0.179679
*CONN
*P wbs_dat_o[8] O
*I *803:wbs_dat_o[8] O *D memory_macro
*CAP
1 wbs_dat_o[8] 0.000854806
2 *803:wbs_dat_o[8] 0.000657425
3 *638:21 0.00957659
4 *638:15 0.00937339
5 *638:9 0.00980386
6 *638:7 0.00980968
7 wbs_dat_o[8] *803:wbs_we_i 9.26931e-05
8 *638:21 wbs_dat_o[9] 0.000866856
9 *638:21 *803:wbs_we_i 0.00039913
10 *638:21 *639:9 0.00077693
11 *638:21 *641:37 0.0165446
12 *638:21 *643:27 0.00145743
13 *543:15 wbs_dat_o[8] 5.46816e-05
14 *572:29 *638:21 0.00315621
15 *580:11 *638:9 0.000359903
16 *589:11 *638:9 0.00129407
17 *595:25 *638:9 4.73953e-05
18 *604:11 *638:9 0.00152509
19 *605:39 *638:15 0.000198807
20 *607:37 *638:9 9.80649e-05
21 *610:9 *638:9 0.0236187
22 *613:9 *638:9 0.00809375
23 *617:9 *638:9 0.00872765
24 *627:9 *638:9 0.0482379
25 *634:11 *638:21 0.00297589
26 *634:25 *638:21 0.00132527
27 *635:23 *638:15 0.000827273
28 *636:33 *638:9 0.0113446
29 *637:17 *638:21 0.00758017
*RES
1 *803:wbs_dat_o[8] *638:7 13.1868 
2 *638:7 *638:9 82.5994 
3 *638:9 *638:15 8.89113 
4 *638:15 *638:21 49.4387 
5 *638:21 wbs_dat_o[8] 19.3233 
*END

*D_NET *639 0.207699
*CONN
*P wbs_dat_o[9] O
*I *803:wbs_dat_o[9] O *D memory_macro
*CAP
1 wbs_dat_o[9] 0.00222968
2 *803:wbs_dat_o[9] 9.27699e-05
3 *639:9 0.0198912
4 *639:7 0.0177543
5 wbs_dat_o[9] *803:wbs_we_i 0.000164527
6 wbs_dat_o[9] *641:37 5.46816e-05
7 *639:9 *803:wbs_sel_i[3] 9.61175e-05
8 *639:9 *640:13 0.000112928
9 *639:9 *641:37 0.00109508
10 *639:9 *643:27 4.73953e-05
11 wbs_dat_o[16] *639:9 9.40633e-05
12 wbs_dat_o[1] *639:9 0.000186675
13 *803:wbs_adr_i[2] *639:9 0.000329827
14 *803:wbs_adr_i[6] *639:9 4.98422e-05
15 *803:wbs_dat_i[7] *639:9 0.00109881
16 *803:wbs_dat_i[9] *639:9 9.61175e-05
17 *543:15 wbs_dat_o[9] 0.00232311
18 *562:13 *639:9 0.00164797
19 *572:29 *639:9 5.0145e-05
20 *572:43 *639:9 0.000565124
21 *578:11 wbs_dat_o[9] 0.00019054
22 *578:11 *639:9 0.0128195
23 *581:11 *639:9 0.0352386
24 *593:25 *639:9 0.00585743
25 *601:35 wbs_dat_o[9] 0.000670205
26 *601:35 *639:9 0.00599224
27 *606:35 *639:9 4.98422e-05
28 *608:9 wbs_dat_o[9] 0.000339261
29 *608:9 *639:9 0.0013478
30 *616:21 *639:9 0.00354542
31 *622:17 *639:9 0.0379089
32 *622:31 *639:9 0.0254408
33 *625:9 *639:9 0.0102025
34 *630:13 *639:9 0.000132841
35 *633:9 *639:9 0.00223343
36 *634:11 *639:9 0.000236324
37 *634:25 *639:9 0.00216268
38 *635:23 *639:9 0.0131378
39 *636:15 *639:9 9.61175e-05
40 *636:25 *639:9 4.73953e-05
41 *637:15 *639:9 9.61175e-05
42 *637:17 *639:9 1.41952e-05
43 *637:31 *639:9 0.000315253
44 *638:21 wbs_dat_o[9] 0.000866856
45 *638:21 *639:9 0.00077693
*RES
1 *803:wbs_dat_o[9] *639:7 4.68679 
2 *639:7 *639:9 130.956 
3 *639:9 wbs_dat_o[9] 22.2706 
*END

*D_NET *640 0.0676284
*CONN
*P wbs_sel_i[0] I
*I *803:wbs_sel_i[0] I *D memory_macro
*CAP
1 wbs_sel_i[0] 0.000522537
2 *803:wbs_sel_i[0] 0.000222511
3 *640:13 0.0046458
4 *640:9 0.00494582
5 *554:9 *640:9 0
6 *554:11 *640:13 0.0278749
7 *565:19 *640:13 0.00245221
8 *581:11 *640:13 0.00121784
9 *608:9 *640:13 0.0256339
10 *639:9 *640:13 0.000112928
*RES
1 wbs_sel_i[0] *640:9 13.7404 
2 *640:9 *640:13 47.4897 
3 *640:13 *803:wbs_sel_i[0] 3.70536 
*END

*D_NET *641 0.0774415
*CONN
*P wbs_sel_i[1] I
*I *803:wbs_sel_i[1] I *D memory_macro
*CAP
1 wbs_sel_i[1] 0.00415882
2 *803:wbs_sel_i[1] 4.76807e-05
3 *641:37 0.00577564
4 *641:15 0.00988678
5 *641:15 *642:21 0.00553329
6 *641:15 *643:11 0.000248805
7 *641:15 *644:15 0.000113595
8 *641:15 *645:23 0.000440125
9 wbs_dat_o[9] *641:37 5.46816e-05
10 *548:19 *641:37 0.000722117
11 *553:17 *641:37 5.13004e-05
12 *565:17 *641:15 0
13 *571:11 *641:15 0.000597074
14 *572:13 *641:15 0.0076944
15 *572:29 *641:37 0.00299309
16 *576:17 *641:15 0.00850018
17 *578:9 *641:15 0
18 *587:11 *641:15 0
19 *598:17 *641:15 0.000360754
20 *608:9 *641:37 5.46816e-05
21 *615:17 *641:37 0.00215092
22 *616:21 *641:37 0.0010893
23 *630:13 *641:37 0.000219809
24 *633:25 *641:15 0.000407528
25 *634:27 *641:15 0.000527694
26 *636:33 *641:15 0.00802966
27 *637:31 *641:37 0.000143889
28 *638:21 *641:37 0.0165446
29 *639:9 *641:37 0.00109508
*RES
1 wbs_sel_i[1] *641:15 47.0553 
2 *641:15 *641:37 46.7885 
3 *641:37 *803:wbs_sel_i[1] 4.07964 
*END

*D_NET *642 0.102995
*CONN
*P wbs_sel_i[2] I
*I *803:wbs_sel_i[2] I *D memory_macro
*CAP
1 wbs_sel_i[2] 0.00329084
2 *803:wbs_sel_i[2] 0.000418365
3 *642:29 0.00567597
4 *642:21 0.00854845
5 *642:21 *643:11 0.000206781
6 *642:21 *645:23 0.000440125
7 wbs_dat_o[2] *642:21 0
8 *803:wbs_adr_i[20] *642:29 0.00187468
9 *803:wbs_dat_i[0] *642:29 0.00355727
10 *541:37 *642:21 4.98422e-05
11 *560:11 *642:29 0.00386728
12 *569:11 *642:29 0.00090794
13 *570:19 *642:29 0.00192618
14 *573:11 *642:29 0.000988991
15 *579:11 *642:29 0.000210643
16 *580:11 *642:29 0.0221987
17 *586:15 *642:29 0.000646322
18 *588:27 *642:29 0.000327739
19 *598:17 *642:21 0.0070782
20 *598:19 *642:29 0.0241233
21 *601:33 *642:21 9.32361e-05
22 *604:11 *642:21 0.00366778
23 *604:11 *642:29 0.000354038
24 *636:33 *642:21 0.00700879
25 *641:15 *642:21 0.00553329
*RES
1 wbs_sel_i[2] *642:21 41.1046 
2 *642:21 *642:29 49.564 
3 *642:29 *803:wbs_sel_i[2] 5.52679 
*END

*D_NET *643 0.0776388
*CONN
*P wbs_sel_i[3] I
*I *803:wbs_sel_i[3] I *D memory_macro
*CAP
1 wbs_sel_i[3] 0.000296095
2 *803:wbs_sel_i[3] 0.000577776
3 *643:27 0.00548201
4 *643:11 0.0187995
5 *643:9 0.0141913
6 wbs_dat_o[12] *643:11 0.00331413
7 *803:wbs_dat_i[2] *643:27 0.000116859
8 *541:37 *643:11 2.87892e-05
9 *547:19 *643:11 0.000820865
10 *559:9 *643:27 0
11 *572:29 *643:27 0.00209631
12 *577:11 *643:11 0.000808058
13 *581:11 *803:wbs_sel_i[3] 0.000100938
14 *581:11 *643:27 5.11642e-05
15 *588:11 *643:11 0
16 *589:11 *643:11 0.00484177
17 *598:17 *643:11 0.000403581
18 *606:35 *643:27 2.1387e-05
19 *613:9 *643:11 0.00615279
20 *615:17 *643:27 0.00688662
21 *634:27 *643:11 0
22 *635:31 *643:11 0.00054982
23 *635:33 *643:11 0
24 *636:25 *643:27 0.00263204
25 *636:33 *643:11 0.00157072
26 *637:17 *643:27 0.00583977
27 *638:21 *643:27 0.00145743
28 *639:9 *803:wbs_sel_i[3] 9.61175e-05
29 *639:9 *643:27 4.73953e-05
30 *641:15 *643:11 0.000248805
31 *642:21 *643:11 0.000206781
*RES
1 wbs_sel_i[3] *643:9 9.21429 
2 *643:9 *643:11 325 
3 *643:11 *643:27 47.4297 
4 *643:27 *803:wbs_sel_i[3] 13.0618 
*END

*D_NET *644 0.0338977
*CONN
*P wbs_stb_i I
*I *803:wbs_stb_i I *D memory_macro
*CAP
1 wbs_stb_i 0.00658456
2 *803:wbs_stb_i 0.000390281
3 *644:15 0.00697484
4 *803:wbs_stb_i *803:wbs_we_i 0.00156585
5 wbs_ack_o *644:15 0.0132092
6 *803:wbs_dat_i[5] *644:15 1.36114e-05
7 *543:15 *803:wbs_stb_i 0.000901034
8 *570:11 *644:15 0.000274404
9 *571:11 *644:15 0.00248432
10 *576:17 *644:15 0.000280782
11 *602:11 *644:15 0.00110099
12 *605:9 *644:15 4.19624e-06
13 *641:15 *644:15 0.000113595
*RES
1 wbs_stb_i *644:15 49.589 
2 *644:15 *803:wbs_stb_i 7.18405 
*END

*D_NET *645 0.0423846
*CONN
*P wbs_we_i I
*I *803:wbs_we_i I *D memory_macro
*CAP
1 wbs_we_i 0.00350966
2 *803:wbs_we_i 0.00282127
3 *645:23 0.00633093
4 wbs_ack_o *645:23 0.0130064
5 wbs_dat_o[5] *645:23 0
6 wbs_dat_o[8] *803:wbs_we_i 9.26931e-05
7 wbs_dat_o[9] *803:wbs_we_i 0.000164527
8 *803:wbs_cyc_i *803:wbs_we_i 0.00150637
9 *803:wbs_stb_i *803:wbs_we_i 0.00156585
10 *543:15 *803:wbs_we_i 0.00119239
11 *576:17 *645:23 0.0109151
12 *638:21 *803:wbs_we_i 0.00039913
13 *641:15 *645:23 0.000440125
14 *642:21 *645:23 0.000440125
*RES
1 wbs_we_i *645:23 49.4878 
2 *645:23 *803:wbs_we_i 16.1618 
*END

*D_NET *646 0.383738
*CONN
*I *802:A0[0] I *D DFFRAM512x32
*I *803:mem_addr[0] O *D memory_macro
*CAP
1 *802:A0[0] 0.000138791
2 *803:mem_addr[0] 0.0059686
3 *646:29 0.0055364
4 *646:21 0.0194333
5 *646:19 0.0140357
6 *646:17 0.00322571
7 *646:15 0.00357898
8 *646:9 0.0213451
9 *646:7 0.0209919
10 *646:5 0.0059686
11 *802:A0[0] *660:11 9.26931e-05
12 *802:A0[0] *677:19 9.26931e-05
13 *646:9 *647:9 0.0529449
14 *646:9 *651:16 0.00550694
15 *646:9 *710:9 0
16 *646:17 *647:17 0.017214
17 *646:17 *691:11 0.00268588
18 *646:21 *647:21 0.0723991
19 *646:21 *653:21 0.0723991
20 *646:29 *647:33 0.0232083
21 *64:13 *646:29 0.0151087
22 *79:18 *646:17 0
23 *139:21 *646:9 0
24 *139:29 *646:17 0.0206238
25 *140:13 *646:29 0.00123825
*RES
1 *803:mem_addr[0] *646:5 116.634 
2 *646:5 *646:7 3.41 
3 *646:7 *646:9 93.4454 
4 *646:9 *646:15 13.6511 
5 *646:15 *646:17 194.393 
6 *646:17 *646:19 4.5 
7 *646:19 *646:21 902.795 
8 *646:21 *646:29 49.9143 
9 *646:29 *802:A0[0] 8.7876 
*END

*D_NET *647 0.365225
*CONN
*I *802:A0[1] I *D DFFRAM512x32
*I *803:mem_addr[1] O *D memory_macro
*CAP
1 *802:A0[1] 0.000148435
2 *803:mem_addr[1] 0.00582254
3 *647:33 0.0042682
4 *647:21 0.0339222
5 *647:19 0.0298024
6 *647:17 0.00278973
7 *647:15 0.00309844
8 *647:9 0.0103801
9 *647:7 0.0100714
10 *647:5 0.00582254
11 *647:9 *648:9 0.00394197
12 *647:9 *649:9 0.042509
13 *647:9 *651:16 0.00635057
14 *647:9 *710:9 0
15 *647:17 *648:17 0.0141669
16 *647:17 *690:11 0.00359741
17 *647:21 *653:21 3.2388e-05
18 *647:33 *802:A0[2] 0.0199115
19 *647:33 *660:11 0.000446714
20 *647:33 *677:19 0.000446714
21 *64:13 *647:33 9.51343e-06
22 *79:18 *647:17 0
23 *139:21 *647:9 0
24 *139:29 *647:17 2.12005e-05
25 *140:13 *647:33 0.00189882
26 *646:9 *647:9 0.0529449
27 *646:17 *647:17 0.017214
28 *646:21 *647:21 0.0723991
29 *646:29 *647:33 0.0232083
*RES
1 *803:mem_addr[1] *647:5 117.241 
2 *647:5 *647:7 3.41 
3 *647:7 *647:9 88.1125 
4 *647:9 *647:15 12.7404 
5 *647:15 *647:17 162.768 
6 *647:17 *647:19 4.5 
7 *647:19 *647:21 903.705 
8 *647:21 *647:33 48.6885 
9 *647:33 *802:A0[1] 6.04393 
*END

*D_NET *648 0.366803
*CONN
*I *802:A0[2] I *D DFFRAM512x32
*I *803:mem_addr[2] O *D memory_macro
*CAP
1 *802:A0[2] 0.00382366
2 *803:mem_addr[2] 0.0058811
3 *648:29 0.0146577
4 *648:27 0.0109059
5 *648:21 0.000793355
6 *648:17 0.00441018
7 *648:15 0.00390539
8 *648:9 0.0101761
9 *648:7 0.00995947
10 *648:5 0.0058811
11 *802:A0[2] *660:11 0.000367111
12 *802:A0[2] *677:19 0.000367111
13 *648:9 *649:9 0.0453374
14 *648:9 *651:16 0.00673605
15 *648:9 *652:9 0.0277842
16 *648:17 *649:19 0.00416246
17 *648:17 *690:11 0.00268588
18 *648:21 *651:18 0.000352003
19 *648:21 *660:15 0.00330627
20 *648:21 *701:10 0.00180623
21 *648:29 *660:15 0.0704167
22 *648:29 *675:26 0.0704183
23 *79:18 *648:17 0
24 *139:21 *648:9 0.00474206
25 *140:13 *802:A0[2] 0.0199067
26 *647:9 *648:9 0.00394197
27 *647:17 *648:17 0.0141669
28 *647:33 *802:A0[2] 0.0199115
*RES
1 *803:mem_addr[2] *648:5 118.455 
2 *648:5 *648:7 3.41 
3 *648:7 *648:9 81.5544 
4 *648:9 *648:15 11.2225 
5 *648:15 *648:17 133.607 
6 *648:17 *648:21 45.6071 
7 *648:21 *648:27 9.94643 
8 *648:27 *648:29 863.634 
9 *648:29 *802:A0[2] 49.293 
*END

*D_NET *649 0.339603
*CONN
*I *802:A0[3] I *D DFFRAM512x32
*I *803:mem_addr[3] O *D memory_macro
*CAP
1 *802:A0[3] 8.64285e-05
2 *803:mem_addr[3] 0.00584749
3 *649:25 0.00546984
4 *649:23 0.00538342
5 *649:21 0.0115985
6 *649:19 0.013022
7 *649:15 0.00165091
8 *649:9 0.0108017
9 *649:7 0.0105743
10 *649:5 0.00584749
11 *649:9 *651:16 0.00929635
12 *649:9 *652:9 0.00588011
13 *649:9 *692:11 0
14 *649:9 *710:9 0
15 *649:19 *689:11 0.000701177
16 *649:21 *650:10 2.30116e-06
17 *649:21 *652:13 0.0742086
18 *649:21 *660:15 5.88653e-05
19 *649:21 *675:26 0.074035
20 *649:25 *802:A0[5] 0.00010339
21 *649:25 *802:A0[6] 0.00174182
22 *649:25 *674:14 0.00522379
23 *649:25 *675:6 0.00159263
24 *649:25 *676:17 0.00301623
25 *79:18 *649:19 0
26 *102:29 *649:25 0.00145136
27 *647:9 *649:9 0.042509
28 *648:9 *649:9 0.0453374
29 *648:17 *649:19 0.00416246
*RES
1 *803:mem_addr[3] *649:5 117.848 
2 *649:5 *649:7 3.41 
3 *649:7 *649:9 86.8153 
4 *649:9 *649:15 11.5261 
5 *649:15 *649:19 44.0536 
6 *649:19 *649:21 911.143 
7 *649:21 *649:23 4.5 
8 *649:23 *649:25 153.321 
9 *649:25 *802:A0[3] 6.07143 
*END

*D_NET *650 0.321022
*CONN
*I *802:A0[4] I *D DFFRAM512x32
*I *803:mem_addr[4] O *D memory_macro
*CAP
1 *802:A0[4] 0.00331531
2 *803:mem_addr[4] 0
3 *650:10 0.0187783
4 *650:8 0.015463
5 *650:6 0.0200261
6 *650:4 0.0200261
7 *802:A0[4] *802:A0[5] 0.00587355
8 *802:A0[4] *660:11 0.0139589
9 *802:A0[4] *675:6 0.000173373
10 *802:A0[4] *676:13 0.00120977
11 *650:6 *803:mem_rdata[10] 0.00114335
12 *650:6 *803:mem_rdata[11] 0.00181398
13 *650:6 *803:mem_rdata[12] 0.01372
14 *650:6 *803:mem_rdata[13] 4.98422e-05
15 *650:6 *803:mem_rdata[14] 9.5164e-05
16 *650:6 *803:mem_rdata[15] 0.00012005
17 *650:6 *803:mem_rdata[16] 0.00191847
18 *650:6 *803:mem_rdata[8] 0.0001579
19 *650:6 *651:16 4.98422e-05
20 *650:6 *682:14 0.0017227
21 *650:6 *684:14 0.00542522
22 *650:6 *723:9 0.0060968
23 *650:10 *652:13 0.000116364
24 *650:10 *654:13 0.07415
25 *650:10 *657:26 0.0839263
26 *650:10 *660:15 0
27 *650:10 *662:15 0.000154829
28 *650:10 *675:26 0
29 *529:28 *650:6 0.0162112
30 *562:27 *650:6 0.0116137
31 *588:35 *650:6 0.00329435
32 *588:51 *650:6 0.000415434
33 *649:21 *650:10 2.30116e-06
*RES
1 *803:mem_addr[4] *650:4 3.41 
2 *650:4 *650:6 82.4913 
3 *650:6 *650:8 3.41 
4 *650:8 *650:10 1034.7 
5 *650:10 *802:A0[4] 31.6975 
*END

*D_NET *651 0.3443
*CONN
*I *802:A0[5] I *D DFFRAM512x32
*I *803:mem_addr[5] O *D memory_macro
*CAP
1 *802:A0[5] 0.00285462
2 *803:mem_addr[5] 0.0369291
3 *651:18 0.0630667
4 *651:16 0.0971412
5 *802:A0[5] *802:A0[6] 0.00855256
6 *802:A0[5] *802:A0[7] 0.000218282
7 *802:A0[5] *660:11 8.83311e-05
8 *802:A0[5] *661:11 5.40077e-05
9 *802:A0[5] *674:6 0.00025199
10 *802:A0[5] *675:6 0.00219848
11 *651:16 *652:9 0.00550235
12 *651:16 *653:9 0.00421826
13 *651:16 *654:9 0.00286087
14 *651:16 *684:14 5.27153e-05
15 *651:16 *689:11 0.00163494
16 *651:16 *690:11 0.00143557
17 *651:16 *691:11 0.00113561
18 *651:16 *692:11 0.000743786
19 *651:16 *693:11 0.000319005
20 *651:16 *694:11 0.00044977
21 *651:16 *710:9 0.00465768
22 *651:18 *660:15 0.0110035
23 *651:18 *661:15 0.0160242
24 *651:18 *663:15 0.0179251
25 *651:18 *701:10 0.0111531
26 *802:A0[4] *802:A0[5] 0.00587355
27 *52:21 *651:16 0.00426052
28 *61:13 *651:16 0.00426052
29 *79:10 *651:16 0.00153309
30 *79:32 *651:18 0
31 *90:13 *651:16 0.00426052
32 *128:21 *651:16 0.00426052
33 *138:27 *651:16 0
34 *139:21 *651:16 0.000984778
35 *646:9 *651:16 0.00550694
36 *647:9 *651:16 0.00635057
37 *648:9 *651:16 0.00673605
38 *648:21 *651:18 0.000352003
39 *649:9 *651:16 0.00929635
40 *649:25 *802:A0[5] 0.00010339
41 *650:6 *651:16 4.98422e-05
*RES
1 *803:mem_addr[5] *651:16 36.9439 
2 *651:16 *651:18 160.806 
3 *651:18 *802:A0[5] 26.7188 
*END

*D_NET *652 0.314477
*CONN
*I *802:A0[6] I *D DFFRAM512x32
*I *803:mem_addr[6] O *D memory_macro
*CAP
1 *802:A0[6] 0.00166386
2 *803:mem_addr[6] 0.00595104
3 *652:13 0.0133109
4 *652:11 0.0116471
5 *652:9 0.00734801
6 *652:7 0.00734801
7 *652:5 0.00595104
8 *802:A0[6] *802:A0[7] 0.00577412
9 *802:A0[6] *664:6 0.000130875
10 *802:A0[6] *674:6 0.00255256
11 *802:A0[6] *676:17 0.000567299
12 *652:9 *653:9 0.0367345
13 *652:9 *653:19 1.46911e-05
14 *652:9 *654:9 0.000196241
15 *652:9 *692:11 0
16 *652:9 *694:11 0.00293004
17 *652:13 *654:13 0.07415
18 *652:13 *675:26 9.54494e-05
19 *802:A0[5] *802:A0[6] 0.00855256
20 *79:18 *652:9 0.0128042
21 *79:32 *652:9 5.29004e-05
22 *139:21 *652:9 0.00146831
23 *648:9 *652:9 0.0277842
24 *649:9 *652:9 0.00588011
25 *649:21 *652:13 0.0742086
26 *649:25 *802:A0[6] 0.00174182
27 *650:10 *652:13 0.000116364
28 *651:16 *652:9 0.00550235
*RES
1 *803:mem_addr[6] *652:5 119.062 
2 *652:5 *652:7 3.41 
3 *652:7 *652:9 66.2763 
4 *652:9 *652:11 3.41 
5 *652:11 *652:13 913.268 
6 *652:13 *802:A0[6] 20.4876 
*END

*D_NET *653 0.288917
*CONN
*I *802:A0[7] I *D DFFRAM512x32
*I *803:mem_addr[7] O *D memory_macro
*CAP
1 *802:A0[7] 0.00155322
2 *803:mem_addr[7] 0.00599788
3 *653:21 0.0145699
4 *653:19 0.0137362
5 *653:9 0.00640402
6 *653:7 0.00568448
7 *653:5 0.00599788
8 *802:A0[7] *802:A0[8] 0.000582677
9 *802:A0[7] *657:10 2.07485e-05
10 *802:A0[7] *657:24 0.0021021
11 *802:A0[7] *659:16 0.000111927
12 *802:A0[7] *664:6 0.00243481
13 *802:A0[7] *669:11 0
14 *802:A0[7] *674:14 0.00115671
15 *802:A0[7] *676:17 0.00101615
16 *653:9 *654:9 0.0314213
17 *653:19 *654:9 0.000426265
18 *653:19 *692:13 0.000103838
19 *653:19 *695:5 2.98694e-05
20 *653:21 *659:18 0.0740227
21 *653:21 *663:15 9.69421e-05
22 *802:A0[5] *802:A0[7] 0.000218282
23 *802:A0[6] *802:A0[7] 0.00577412
24 *61:13 *653:19 0
25 *79:10 *653:9 0.00143784
26 *102:29 *802:A0[7] 0.000536813
27 *139:21 *653:9 8.08591e-05
28 *140:13 *802:A0[7] 0
29 *646:21 *653:21 0.0723991
30 *647:21 *653:21 3.2388e-05
31 *651:16 *653:9 0.00421826
32 *652:9 *653:9 0.0367345
33 *652:9 *653:19 1.46911e-05
*RES
1 *803:mem_addr[7] *653:5 119.67 
2 *653:5 *653:7 3.41 
3 *653:7 *653:9 57.34 
4 *653:9 *653:19 13.2738 
5 *653:19 *653:21 910.839 
6 *653:21 *802:A0[7] 16.9563 
*END

*D_NET *654 0.260095
*CONN
*I *802:A0[8] I *D DFFRAM512x32
*I *803:mem_addr[8] O *D memory_macro
*CAP
1 *802:A0[8] 0.00077596
2 *803:mem_addr[8] 0.00602914
3 *654:13 0.0123355
4 *654:11 0.0115596
5 *654:9 0.00678636
6 *654:7 0.00678636
7 *654:5 0.00602914
8 *802:A0[8] *657:24 0.00284707
9 *802:A0[8] *659:10 0.000693256
10 *802:A0[8] *659:16 0.000593674
11 *802:A0[8] *675:14 0.000384378
12 *802:A0[8] *679:19 0.00035646
13 *802:A0[8] *680:19 0.000213663
14 *654:9 *689:11 0.0206842
15 *802:A0[7] *802:A0[8] 0.000582677
16 *61:13 *654:9 0
17 *79:10 *654:9 0.000186125
18 *79:32 *654:9 4.65519e-05
19 *650:10 *654:13 0.07415
20 *651:16 *654:9 0.00286087
21 *652:9 *654:9 0.000196241
22 *652:13 *654:13 0.07415
23 *653:9 *654:9 0.0314213
24 *653:19 *654:9 0.000426265
*RES
1 *803:mem_addr[8] *654:5 120.277 
2 *654:5 *654:7 3.41 
3 *654:7 *654:9 49.773 
4 *654:9 *654:11 3.41 
5 *654:11 *654:13 910.232 
6 *654:13 *802:A0[8] 11.4793 
*END

*D_NET *655 0.0415992
*CONN
*I *802:EN0 I *D DFFRAM512x32
*I *803:mem_en O *D memory_macro
*CAP
1 *802:EN0 0.00497773
2 *803:mem_en 0.00109716
3 *655:11 0.0197024
4 *655:7 0.0158219
5 *655:11 *667:14 0
6 *41:5 *655:11 0
*RES
1 *803:mem_en *655:7 24.1154 
2 *655:7 *655:11 45.7601 
3 *655:11 *802:EN0 100.848 
*END

*D_NET *656 0.159731
*CONN
*I *803:mem_rdata[0] I *D memory_macro
*I *802:Do0[0] O *D DFFRAM512x32
*CAP
1 *803:mem_rdata[0] 0.00166275
2 *802:Do0[0] 0.000368839
3 *656:14 0.0213433
4 *656:12 0.0196805
5 *656:10 0.0420011
6 *656:8 0.0423699
7 *656:8 *685:12 0.00063771
8 *656:10 *687:18 0.031029
9 *656:14 *667:14 0
10 *102:19 *656:8 0.00063771
*RES
1 *802:Do0[0] *656:8 8.77677 
2 *656:8 *656:10 175.081 
3 *656:10 *656:12 3.41 
4 *656:12 *656:14 57.8084 
5 *656:14 *803:mem_rdata[0] 36.2582 
*END

*D_NET *657 0.437558
*CONN
*I *803:mem_rdata[10] I *D memory_macro
*I *802:Do0[10] O *D DFFRAM512x32
*CAP
1 *803:mem_rdata[10] 0.00650788
2 *802:Do0[10] 0.00423746
3 *657:26 0.0197733
4 *657:24 0.0141842
5 *657:10 0.0143659
6 *657:8 0.0176846
7 *803:mem_rdata[10] *803:mem_rdata[11] 0.0170256
8 *803:mem_rdata[10] *803:mem_rdata[12] 0.00206436
9 *803:mem_rdata[10] *803:mem_rdata[13] 0.00698149
10 *657:8 *658:8 0.00234036
11 *657:8 *658:10 0.000147614
12 *657:8 *659:8 0.00186289
13 *657:8 *659:10 0.00247901
14 *657:10 *659:10 0.0719258
15 *657:10 *664:6 0.0643653
16 *657:10 *675:14 0.0012822
17 *657:10 *679:11 0.00381533
18 *657:10 *679:17 0.00105995
19 *657:10 *679:19 0.00119521
20 *657:10 *680:17 0.000548038
21 *657:24 *659:10 0.000167584
22 *657:24 *659:16 0.00109056
23 *657:24 *664:24 0.000478822
24 *657:24 *675:24 7.29646e-05
25 *657:26 *662:15 0.0838295
26 *802:A0[7] *657:10 2.07485e-05
27 *802:A0[7] *657:24 0.0021021
28 *802:A0[8] *657:24 0.00284707
29 *102:21 *657:8 0.00182447
30 *102:21 *657:10 0
31 *102:29 *657:10 0.00578823
32 *102:29 *657:24 0.000419561
33 *140:13 *657:8 0
34 *650:6 *803:mem_rdata[10] 0.00114335
35 *650:10 *657:26 0.0839263
*RES
1 *802:Do0[10] *657:8 23.0325 
2 *657:8 *657:10 114.129 
3 *657:10 *657:24 16.8255 
4 *657:24 *657:26 1032.27 
5 *657:26 *803:mem_rdata[10] 43.2919 
*END

*D_NET *658 0.270498
*CONN
*I *803:mem_rdata[11] I *D memory_macro
*I *802:Do0[11] O *D DFFRAM512x32
*CAP
1 *803:mem_rdata[11] 0.0031923
2 *802:Do0[11] 0.000822173
3 *658:14 0.0608812
4 *658:12 0.0576889
5 *658:10 0.0171007
6 *658:8 0.0179229
7 *803:mem_rdata[11] *803:mem_rdata[12] 0.013585
8 *658:10 *659:8 0.000691322
9 *658:10 *659:10 0.0452129
10 *658:10 *659:16 0.00011956
11 *658:10 *677:33 0.00129562
12 *658:14 *802:Di0[0] 0
13 *803:mem_rdata[10] *803:mem_rdata[11] 0.0170256
14 *140:13 *658:8 0
15 *140:13 *658:10 0.0306578
16 *650:6 *803:mem_rdata[11] 0.00181398
17 *657:8 *658:8 0.00234036
18 *657:8 *658:10 0.000147614
*RES
1 *802:Do0[11] *658:8 7.46297 
2 *658:8 *658:10 127.173 
3 *658:10 *658:12 3.41 
4 *658:12 *658:14 180.834 
5 *658:14 *803:mem_rdata[11] 33.928 
*END

*D_NET *659 0.396436
*CONN
*I *803:mem_rdata[12] I *D memory_macro
*I *802:Do0[12] O *D DFFRAM512x32
*CAP
1 *803:mem_rdata[12] 0.00304739
2 *802:Do0[12] 0.000449523
3 *659:18 0.0183628
4 *659:16 0.0164302
5 *659:10 0.0152761
6 *659:8 0.0146109
7 *803:mem_rdata[12] *803:mem_rdata[13] 0.0001949
8 *803:mem_rdata[12] *803:mem_rdata[16] 0.00249695
9 *803:mem_rdata[12] *701:8 0.000258603
10 *659:10 *677:27 0.00171237
11 *659:10 *677:31 0.000848178
12 *659:10 *677:33 0.0010827
13 *659:10 *679:19 0.000279571
14 *659:10 *680:11 0.00610754
15 *659:10 *680:19 0.0018208
16 *659:16 *677:33 0.000464373
17 *659:18 *663:15 0.0839454
18 *802:A0[7] *659:16 0.000111927
19 *802:A0[8] *659:10 0.000693256
20 *802:A0[8] *659:16 0.000593674
21 *803:mem_rdata[10] *803:mem_rdata[12] 0.00206436
22 *803:mem_rdata[11] *803:mem_rdata[12] 0.013585
23 *140:13 *659:16 0.00070718
24 *650:6 *803:mem_rdata[12] 0.01372
25 *653:21 *659:18 0.0740227
26 *657:8 *659:8 0.00186289
27 *657:8 *659:10 0.00247901
28 *657:10 *659:10 0.0719258
29 *657:24 *659:10 0.000167584
30 *657:24 *659:16 0.00109056
31 *658:10 *659:8 0.000691322
32 *658:10 *659:10 0.0452129
33 *658:10 *659:16 0.00011956
*RES
1 *802:Do0[12] *659:8 6.52923 
2 *659:8 *659:10 123.281 
3 *659:10 *659:16 8.1147 
4 *659:16 *659:18 1031.05 
5 *659:18 *803:mem_rdata[12] 33.0115 
*END

*D_NET *660 0.358038
*CONN
*I *803:mem_rdata[13] I *D memory_macro
*I *802:Do0[13] O *D DFFRAM512x32
*CAP
1 *803:mem_rdata[13] 0.00368884
2 *802:Do0[13] 0.000168411
3 *660:15 0.0265249
4 *660:13 0.0228361
5 *660:11 0.0153634
6 *660:9 0.0155318
7 *803:mem_rdata[13] *803:mem_rdata[14] 0.00885112
8 *803:mem_rdata[13] *723:9 9.97767e-06
9 *660:11 *661:11 0.0760088
10 *660:11 *676:13 0.000284075
11 *660:11 *677:19 0.0097199
12 *660:15 *661:15 0
13 *660:15 *675:26 0.00569097
14 *660:15 *701:10 0.0219741
15 *802:A0[0] *660:11 9.26931e-05
16 *802:A0[2] *660:11 0.000367111
17 *802:A0[4] *660:11 0.0139589
18 *802:A0[5] *660:11 8.83311e-05
19 *803:mem_rdata[10] *803:mem_rdata[13] 0.00698149
20 *803:mem_rdata[12] *803:mem_rdata[13] 0.0001949
21 *102:21 *660:11 0.0444201
22 *647:33 *660:11 0.000446714
23 *648:21 *660:15 0.00330627
24 *648:29 *660:15 0.0704167
25 *649:21 *660:15 5.88653e-05
26 *650:6 *803:mem_rdata[13] 4.98422e-05
27 *650:10 *660:15 0
28 *651:18 *660:15 0.0110035
*RES
1 *802:Do0[13] *660:9 6.65107 
2 *660:9 *660:11 125.443 
3 *660:11 *660:13 3.41 
4 *660:13 *660:15 1037.12 
5 *660:15 *803:mem_rdata[13] 34.6897 
*END

*D_NET *661 0.38228
*CONN
*I *803:mem_rdata[14] I *D memory_macro
*I *802:Do0[14] O *D DFFRAM512x32
*CAP
1 *803:mem_rdata[14] 0.00330129
2 *802:Do0[14] 0.000210648
3 *661:15 0.0251215
4 *661:13 0.0218202
5 *661:11 0.0128849
6 *661:9 0.0130956
7 *803:mem_rdata[14] *803:mem_rdata[15] 0.00549919
8 *803:mem_rdata[14] *803:mem_rdata[16] 0.000500563
9 *661:11 *662:11 0.0743695
10 *661:11 *669:11 0.000376388
11 *661:15 *663:15 0.0843739
12 *661:15 *701:10 0.0231543
13 *802:A0[5] *661:11 5.40077e-05
14 *803:mem_rdata[13] *803:mem_rdata[14] 0.00885112
15 *36:19 *661:11 0.0165382
16 *650:6 *803:mem_rdata[14] 9.5164e-05
17 *651:18 *661:15 0.0160242
18 *660:11 *661:11 0.0760088
19 *660:15 *661:15 0
*RES
1 *802:Do0[14] *661:9 7.25821 
2 *661:9 *661:11 121.407 
3 *661:11 *661:13 3.41 
4 *661:13 *661:15 1035.91 
5 *661:15 *803:mem_rdata[14] 37.0197 
*END

*D_NET *662 0.340227
*CONN
*I *803:mem_rdata[15] I *D memory_macro
*I *802:Do0[15] O *D DFFRAM512x32
*CAP
1 *803:mem_rdata[15] 0.00280411
2 *802:Do0[15] 0.000244106
3 *662:15 0.0267007
4 *662:13 0.0238966
5 *662:11 0.0115076
6 *662:9 0.0117517
7 *662:11 *663:11 0.00816121
8 *662:11 *669:11 0.0571621
9 *662:15 *674:18 0
10 *662:15 *695:5 0.0186666
11 *803:mem_rdata[14] *803:mem_rdata[15] 0.00549919
12 *36:19 *662:11 0.0153398
13 *79:32 *662:15 1.94945e-05
14 *650:6 *803:mem_rdata[15] 0.00012005
15 *650:10 *662:15 0.000154829
16 *657:26 *662:15 0.0838295
17 *661:11 *662:11 0.0743695
*RES
1 *802:Do0[15] *662:9 7.86536 
2 *662:9 *662:11 115.93 
3 *662:11 *662:13 3.41 
4 *662:13 *662:15 1035.3 
5 *662:15 *803:mem_rdata[15] 30.8658 
*END

*D_NET *663 0.38948
*CONN
*I *803:mem_rdata[16] I *D memory_macro
*I *802:Do0[16] O *D DFFRAM512x32
*CAP
1 *803:mem_rdata[16] 0.000535264
2 *802:Do0[16] 0.000328279
3 *663:15 0.0139092
4 *663:13 0.013374
5 *663:11 0.0118005
6 *663:9 0.0121288
7 *663:11 *665:11 0.00162686
8 *663:11 *666:11 0.0635784
9 *663:11 *669:11 0.0578656
10 *803:mem_rdata[12] *803:mem_rdata[16] 0.00249695
11 *803:mem_rdata[14] *803:mem_rdata[16] 0.000500563
12 *36:19 *663:11 0.0149148
13 *650:6 *803:mem_rdata[16] 0.00191847
14 *651:18 *663:15 0.0179251
15 *653:21 *663:15 9.69421e-05
16 *659:18 *663:15 0.0839454
17 *661:15 *663:15 0.0843739
18 *662:11 *663:11 0.00816121
*RES
1 *802:Do0[16] *663:9 9.27607 
2 *663:9 *663:11 112.615 
3 *663:11 *663:13 3.41 
4 *663:13 *663:15 1038.34 
5 *663:15 *803:mem_rdata[16] 10.8307 
*END

*D_NET *664 0.289657
*CONN
*I *803:mem_rdata[17] I *D memory_macro
*I *802:Do0[17] O *D DFFRAM512x32
*CAP
1 *803:mem_rdata[17] 0.0325401
2 *802:Do0[17] 0
3 *664:28 0.0339583
4 *664:24 0.0021055
5 *664:6 0.0145486
6 *664:4 0.0138612
7 *803:mem_rdata[17] *677:37 0.0789376
8 *664:6 *674:6 0.0363304
9 *664:6 *676:17 0.00054624
10 *664:6 *680:19 0.000274942
11 *664:24 *675:24 7.22944e-05
12 *664:24 *676:17 0.00213945
13 *664:24 *676:23 0
14 *664:24 *680:25 0
15 *664:28 *677:33 0
16 *802:A0[6] *664:6 0.000130875
17 *802:A0[7] *664:6 0.00243481
18 *102:21 *664:6 0.00376852
19 *102:29 *664:6 0.000681821
20 *102:29 *664:24 0.00213633
21 *140:13 *664:28 0.000345474
22 *657:10 *664:6 0.0643653
23 *657:24 *664:24 0.000478822
*RES
1 *802:Do0[17] *664:4 3.41 
2 *664:4 *664:6 102.165 
3 *664:6 *664:24 44.0975 
4 *664:24 *664:28 28.4464 
5 *664:28 *803:mem_rdata[17] 1026.29 
*END

*D_NET *665 0.270369
*CONN
*I *803:mem_rdata[18] I *D memory_macro
*I *802:Do0[18] O *D DFFRAM512x32
*CAP
1 *803:mem_rdata[18] 0.0363648
2 *802:Do0[18] 0.000377468
3 *665:13 0.0363648
4 *665:11 0.0169701
5 *665:9 0.0173476
6 *803:mem_rdata[18] *707:13 0.0644656
7 *665:11 *666:11 0.0680518
8 *665:11 *668:11 0
9 *665:11 *670:11 0
10 *665:11 *671:11 0
11 *665:11 *672:11 0.000574684
12 *665:11 *673:11 0.0140077
13 *36:19 *665:11 0.014218
14 *37:9 *665:11 0
15 *663:11 *665:11 0.00162686
*RES
1 *802:Do0[18] *665:9 10.2939 
2 *665:9 *665:11 110.525 
3 *665:11 *665:13 3.41 
4 *665:13 *803:mem_rdata[18] 1038.28 
*END

*D_NET *666 0.275399
*CONN
*I *803:mem_rdata[19] I *D memory_macro
*I *802:Do0[19] O *D DFFRAM512x32
*CAP
1 *803:mem_rdata[19] 0.050607
2 *802:Do0[19] 0.000348634
3 *666:13 0.050607
4 *666:11 0.0107191
5 *666:9 0.0110678
6 *666:11 *669:11 0.00453793
7 *666:11 *673:11 0.000671821
8 *36:19 *666:11 0.0152098
9 *663:11 *666:11 0.0635784
10 *665:11 *666:11 0.0680518
*RES
1 *802:Do0[19] *666:9 9.68679 
2 *666:9 *666:11 111.534 
3 *666:11 *666:13 3.41 
4 *666:13 *803:mem_rdata[19] 1037.67 
*END

*D_NET *667 0.159229
*CONN
*I *803:mem_rdata[1] I *D memory_macro
*I *802:Do0[1] O *D DFFRAM512x32
*CAP
1 *803:mem_rdata[1] 0.001352
2 *802:Do0[1] 8.7164e-05
3 *667:14 0.0234624
4 *667:12 0.0221104
5 *667:10 0.0557472
6 *667:8 0.0558344
7 *667:8 *687:16 0.000415434
8 *667:14 *720:11 0
9 *102:19 *667:8 0.000220173
10 *655:11 *667:14 0
11 *656:14 *667:14 0
*RES
1 *802:Do0[1] *667:8 7.47957 
2 *667:8 *667:10 176.147 
3 *667:10 *667:12 3.41 
4 *667:12 *667:14 65.5916 
5 *667:14 *803:mem_rdata[1] 30.1868 
*END

*D_NET *668 0.275887
*CONN
*I *803:mem_rdata[20] I *D memory_macro
*I *802:Do0[20] O *D DFFRAM512x32
*CAP
1 *803:mem_rdata[20] 0.0382872
2 *802:Do0[20] 0.000632265
3 *668:13 0.0382872
4 *668:11 0.0112764
5 *668:9 0.0119087
6 *803:mem_rdata[20] *704:13 0.036774
7 *668:11 *670:11 0.0665037
8 *37:9 *668:11 0.0722174
9 *665:11 *668:11 0
*RES
1 *802:Do0[20] *668:9 15.1511 
2 *668:9 *668:11 112.543 
3 *668:11 *668:13 3.41 
4 *668:13 *803:mem_rdata[20] 1043.13 
*END

*D_NET *669 0.268993
*CONN
*I *803:mem_rdata[21] I *D memory_macro
*I *802:Do0[21] O *D DFFRAM512x32
*CAP
1 *803:mem_rdata[21] 0.0505232
2 *802:Do0[21] 0.00028798
3 *669:13 0.0505232
4 *669:11 0.0147677
5 *669:9 0.0150556
6 *669:11 *673:11 0
7 *802:A0[7] *669:11 0
8 *36:19 *669:11 0.0178934
9 *661:11 *669:11 0.000376388
10 *662:11 *669:11 0.0571621
11 *663:11 *669:11 0.0578656
12 *666:11 *669:11 0.00453793
*RES
1 *802:Do0[21] *669:9 8.4725 
2 *669:9 *669:11 113.552 
3 *669:11 *669:13 3.41 
4 *669:13 *803:mem_rdata[21] 1036.46 
*END

*D_NET *670 0.269547
*CONN
*I *803:mem_rdata[22] I *D memory_macro
*I *802:Do0[22] O *D DFFRAM512x32
*CAP
1 *803:mem_rdata[22] 0.0525704
2 *802:Do0[22] 0.000611572
3 *670:13 0.0525704
4 *670:11 0.0112678
5 *670:9 0.0118794
6 *670:11 *671:11 0.0706313
7 *37:9 *670:11 0.00351211
8 *665:11 *670:11 0
9 *668:11 *670:11 0.0665037
*RES
1 *802:Do0[22] *670:9 14.5439 
2 *670:9 *670:11 114.561 
3 *670:11 *670:13 3.41 
4 *670:13 *803:mem_rdata[22] 1042.53 
*END

*D_NET *671 0.274493
*CONN
*I *803:mem_rdata[23] I *D memory_macro
*I *802:Do0[23] O *D DFFRAM512x32
*CAP
1 *803:mem_rdata[23] 0.050789
2 *802:Do0[23] 0.000581865
3 *671:13 0.050789
4 *671:11 0.0115224
5 *671:9 0.0121042
6 *803:mem_rdata[23] *711:13 0
7 *671:11 *672:11 0.0714678
8 *36:19 *671:11 0.00660775
9 *665:11 *671:11 0
10 *670:11 *671:11 0.0706313
*RES
1 *802:Do0[23] *671:9 13.9368 
2 *671:9 *671:11 115.57 
3 *671:11 *671:13 3.41 
4 *671:13 *803:mem_rdata[23] 1041.92 
*END

*D_NET *672 0.276338
*CONN
*I *803:mem_rdata[24] I *D memory_macro
*I *802:Do0[24] O *D DFFRAM512x32
*CAP
1 *803:mem_rdata[24] 0.0507484
2 *802:Do0[24] 0.000513134
3 *672:13 0.0507484
4 *672:11 0.0116385
5 *672:9 0.0121516
6 *672:11 *673:11 0.071926
7 *36:19 *672:11 0.0065696
8 *665:11 *672:11 0.000574684
9 *671:11 *672:11 0.0714678
*RES
1 *802:Do0[24] *672:9 12.5082 
2 *672:9 *672:11 116.867 
3 *672:11 *672:13 3.41 
4 *672:13 *803:mem_rdata[24] 1041.31 
*END

*D_NET *673 0.238462
*CONN
*I *803:mem_rdata[25] I *D memory_macro
*I *802:Do0[25] O *D DFFRAM512x32
*CAP
1 *803:mem_rdata[25] 0.0524347
2 *802:Do0[25] 0.000522452
3 *673:13 0.0524347
4 *673:11 0.0190622
5 *673:9 0.0195847
6 *36:19 *673:11 0.00781746
7 *665:11 *673:11 0.0140077
8 *666:11 *673:11 0.000671821
9 *669:11 *673:11 0
10 *672:11 *673:11 0.071926
*RES
1 *802:Do0[25] *673:9 12.7225 
2 *673:9 *673:11 117.588 
3 *673:11 *673:13 3.41 
4 *673:13 *803:mem_rdata[25] 1040.71 
*END

*D_NET *674 0.230793
*CONN
*I *803:mem_rdata[26] I *D memory_macro
*I *802:Do0[26] O *D DFFRAM512x32
*CAP
1 *803:mem_rdata[26] 0.0256373
2 *802:Do0[26] 0
3 *674:24 0.0256373
4 *674:22 0.0160149
5 *674:20 0.0160149
6 *674:18 0.0257485
7 *674:16 0.0257485
8 *674:14 0.000653463
9 *674:12 0.000699933
10 *674:6 0.00649076
11 *674:4 0.00644429
12 *674:6 *675:6 0.0305118
13 *674:14 *676:17 0.00496299
14 *674:18 *676:23 0
15 *674:18 *694:17 0
16 *674:18 *695:5 0
17 *802:A0[5] *674:6 0.00025199
18 *802:A0[6] *674:6 0.00255256
19 *802:A0[7] *674:14 0.00115671
20 *102:21 *674:6 0.000619635
21 *102:29 *674:14 9.31523e-05
22 *649:25 *674:14 0.00522379
23 *662:15 *674:18 0
24 *664:6 *674:6 0.0363304
*RES
1 *802:Do0[26] *674:4 3.41 
2 *674:4 *674:6 57.7003 
3 *674:6 *674:12 8.49036 
4 *674:12 *674:14 49.4107 
5 *674:14 *674:16 4.5 
6 *674:16 *674:18 524.393 
7 *674:18 *674:20 4.5 
8 *674:20 *674:22 299.125 
9 *674:22 *674:24 4.5 
10 *674:24 *803:mem_rdata[26] 507.786 
*END

*D_NET *675 0.309385
*CONN
*I *803:mem_rdata[27] I *D memory_macro
*I *802:Do0[27] O *D DFFRAM512x32
*CAP
1 *803:mem_rdata[27] 0.00194339
2 *802:Do0[27] 0
3 *675:30 0.0191287
4 *675:28 0.0171853
5 *675:26 0.0143706
6 *675:24 0.0147859
7 *675:14 0.00132897
8 *675:12 0.00102399
9 *675:6 0.0056318
10 *675:4 0.00552144
11 *675:6 *676:13 0.0247657
12 *675:14 *679:19 0.0075697
13 *675:24 *677:33 0.000313309
14 *675:24 *679:19 0.000489029
15 *675:24 *680:19 0.000267731
16 *802:A0[4] *675:6 0.000173373
17 *802:A0[5] *675:6 0.00219848
18 *802:A0[8] *675:14 0.000384378
19 *102:21 *675:6 0.000963737
20 *102:29 *675:14 0.00756801
21 *648:29 *675:26 0.0704183
22 *649:21 *675:26 0.074035
23 *649:25 *675:6 0.00159263
24 *650:10 *675:26 0
25 *652:13 *675:26 9.54494e-05
26 *657:10 *675:14 0.0012822
27 *657:24 *675:24 7.29646e-05
28 *660:15 *675:26 0.00569097
29 *664:24 *675:24 7.22944e-05
30 *674:6 *675:6 0.0305118
*RES
1 *802:Do0[27] *675:4 3.41 
2 *675:4 *675:6 48.4037 
3 *675:6 *675:12 9.40107 
4 *675:12 *675:14 71.5893 
5 *675:14 *675:24 26.1607 
6 *675:24 *675:26 990.679 
7 *675:26 *675:28 4.5 
8 *675:28 *675:30 324.179 
9 *675:30 *803:mem_rdata[27] 43.875 
*END

*D_NET *676 0.216553
*CONN
*I *803:mem_rdata[28] I *D memory_macro
*I *802:Do0[28] O *D DFFRAM512x32
*CAP
1 *803:mem_rdata[28] 0.0495857
2 *802:Do0[28] 0.00499044
3 *676:27 0.0495857
4 *676:25 0.0192756
5 *676:23 0.019821
6 *676:17 0.00219699
7 *676:15 0.00165156
8 *676:13 0.00499044
9 *676:13 *677:19 0.0192759
10 *676:23 *680:25 0.00088569
11 *802:A0[4] *676:13 0.00120977
12 *802:A0[6] *676:17 0.000567299
13 *802:A0[7] *676:17 0.00101615
14 *102:21 *676:13 0.00122381
15 *102:29 *676:17 0.0045627
16 *649:25 *676:17 0.00301623
17 *660:11 *676:13 0.000284075
18 *664:6 *676:17 0.00054624
19 *664:24 *676:17 0.00213945
20 *664:24 *676:23 0
21 *674:14 *676:17 0.00496299
22 *674:18 *676:23 0
23 *675:6 *676:13 0.0247657
*RES
1 *802:Do0[28] *676:13 48.6975 
2 *676:13 *676:15 4.5 
3 *676:15 *676:17 99.1071 
4 *676:17 *676:23 21.875 
5 *676:23 *676:25 364.018 
6 *676:25 *676:27 4.5 
7 *676:27 *803:mem_rdata[28] 1019 
*END

*D_NET *677 0.245203
*CONN
*I *803:mem_rdata[29] I *D memory_macro
*I *802:Do0[29] O *D DFFRAM512x32
*CAP
1 *803:mem_rdata[29] 0.00294579
2 *802:Do0[29] 0.00453852
3 *677:43 0.00294579
4 *677:41 0.0197725
5 *677:39 0.0197725
6 *677:37 0.0298389
7 *677:35 0.0298389
8 *677:33 0.00432543
9 *677:31 0.00501566
10 *677:27 0.00201165
11 *677:19 0.00585994
12 *677:19 *680:17 1.00733e-05
13 *677:27 *680:17 0.00139523
14 *677:27 *680:19 0.00049415
15 *677:31 *680:19 0.00107804
16 *677:33 *679:19 0
17 *677:33 *680:19 0.000803337
18 *802:A0[0] *677:19 9.26931e-05
19 *802:A0[2] *677:19 0.000367111
20 *803:mem_rdata[17] *677:37 0.0789376
21 *647:33 *677:19 0.000446714
22 *658:10 *677:33 0.00129562
23 *659:10 *677:27 0.00171237
24 *659:10 *677:31 0.000848178
25 *659:10 *677:33 0.0010827
26 *659:16 *677:33 0.000464373
27 *660:11 *677:19 0.0097199
28 *664:28 *677:33 0
29 *675:24 *677:33 0.000313309
30 *676:13 *677:19 0.0192759
*RES
1 *802:Do0[29] *677:19 47.7632 
2 *677:19 *677:27 37.7589 
3 *677:27 *677:31 19.6429 
4 *677:31 *677:33 89.4554 
5 *677:33 *677:35 4.5 
6 *677:35 *677:37 970.946 
7 *677:37 *677:39 4.5 
8 *677:39 *677:41 374.286 
9 *677:41 *677:43 4.5 
10 *677:43 *803:mem_rdata[29] 57.8929 
*END

*D_NET *678 0.164762
*CONN
*I *803:mem_rdata[2] I *D memory_macro
*I *802:Do0[2] O *D DFFRAM512x32
*CAP
1 *803:mem_rdata[2] 0.00225528
2 *802:Do0[2] 5.06415e-05
3 *678:14 0.0255706
4 *678:12 0.0233153
5 *678:10 0.0547035
6 *678:8 0.0547541
7 *678:8 *685:12 0.000278181
8 *678:8 *687:16 0.000278181
9 *678:10 *684:10 0
10 *678:14 *721:11 0.00355668
11 *30:17 *678:14 0
*RES
1 *802:Do0[2] *678:8 7.26337 
2 *678:8 *678:10 172.844 
3 *678:10 *678:12 3.41 
4 *678:12 *678:14 73.0866 
5 *678:14 *803:mem_rdata[2] 49.0082 
*END

*D_NET *679 0.218471
*CONN
*I *803:mem_rdata[30] I *D memory_macro
*I *802:Do0[30] O *D DFFRAM512x32
*CAP
1 *803:mem_rdata[30] 0.00314157
2 *802:Do0[30] 9.85822e-05
3 *679:29 0.00314157
4 *679:27 0.0202733
5 *679:25 0.0202733
6 *679:23 0.0427171
7 *679:21 0.0427171
8 *679:19 0.00211144
9 *679:17 0.00274923
10 *679:11 0.00330738
11 *679:9 0.00276817
12 *679:11 *680:11 0.0124173
13 *679:17 *680:11 0.000362418
14 *679:17 *680:17 0.00259696
15 *679:17 *680:19 0.000708088
16 *679:19 *680:19 0.00915005
17 *802:A0[8] *679:19 0.00035646
18 *61:9 *679:23 0.0199449
19 *102:29 *679:11 0.00824734
20 *102:29 *679:17 0.00457466
21 *102:29 *679:19 0.0024057
22 *657:10 *679:11 0.00381533
23 *657:10 *679:17 0.00105995
24 *657:10 *679:19 0.00119521
25 *659:10 *679:19 0.000279571
26 *675:14 *679:19 0.0075697
27 *675:24 *679:19 0.000489029
28 *677:33 *679:19 0
*RES
1 *802:Do0[30] *679:9 6.07143 
2 *679:9 *679:11 142.438 
3 *679:11 *679:17 44.1071 
4 *679:17 *679:19 114.098 
5 *679:19 *679:21 4.5 
6 *679:21 *679:23 966.696 
7 *679:23 *679:25 4.5 
8 *679:25 *679:27 399.339 
9 *679:27 *679:29 4.5 
10 *679:29 *803:mem_rdata[30] 63.9643 
*END

*D_NET *680 0.199167
*CONN
*I *803:mem_rdata[31] I *D memory_macro
*I *802:Do0[31] O *D DFFRAM512x32
*CAP
1 *803:mem_rdata[31] 0.0492501
2 *802:Do0[31] 7.86094e-05
3 *680:29 0.0492501
4 *680:27 0.0232694
5 *680:25 0.024022
6 *680:19 0.00309166
7 *680:17 0.00276296
8 *680:11 0.00432691
9 *680:9 0.00398164
10 *802:A0[8] *680:19 0.000213663
11 *657:10 *680:17 0.000548038
12 *659:10 *680:11 0.00610754
13 *659:10 *680:19 0.0018208
14 *664:6 *680:19 0.000274942
15 *664:24 *680:25 0
16 *675:24 *680:19 0.000267731
17 *676:23 *680:25 0.00088569
18 *677:19 *680:17 1.00733e-05
19 *677:27 *680:17 0.00139523
20 *677:27 *680:19 0.00049415
21 *677:31 *680:19 0.00107804
22 *677:33 *680:19 0.000803337
23 *679:11 *680:11 0.0124173
24 *679:17 *680:11 0.000362418
25 *679:17 *680:17 0.00259696
26 *679:17 *680:19 0.000708088
27 *679:19 *680:19 0.00915005
*RES
1 *802:Do0[31] *680:9 5.66071 
2 *680:9 *680:11 123.75 
3 *680:11 *680:17 25.4196 
4 *680:17 *680:19 98.9018 
5 *680:19 *680:25 26.4286 
6 *680:25 *680:27 458.071 
7 *680:27 *680:29 4.5 
8 *680:29 *803:mem_rdata[31] 1012.93 
*END

*D_NET *681 0.357704
*CONN
*I *803:mem_rdata[3] I *D memory_macro
*I *802:Do0[3] O *D DFFRAM512x32
*CAP
1 *803:mem_rdata[3] 0
2 *802:Do0[3] 0.00197235
3 *681:27 0.0110446
4 *681:25 0.0123621
5 *681:13 0.0318639
6 *681:11 0.0325187
7 *681:11 *682:8 0.0102756
8 *681:11 *683:13 0.0102328
9 *681:13 *803:cpu_mem_wdata[21] 0
10 *681:13 *683:15 0.0814113
11 *681:25 *683:23 0.00272501
12 *681:27 *682:14 0.0600295
13 *52:27 *681:13 0.00104585
14 *90:11 *681:13 0.000265778
15 *102:9 *681:13 0.0176168
16 *529:28 *681:27 0.0124854
17 *562:27 *681:27 0.0134633
18 *584:19 *681:27 0.0580409
19 *588:35 *681:27 0.000350219
*RES
1 *802:Do0[3] *681:11 23.6993 
2 *681:11 *681:13 998.42 
3 *681:13 *681:25 48.2582 
4 *681:25 *681:27 95.5353 
5 *681:27 *803:mem_rdata[3] 3.41 
*END

*D_NET *682 0.308209
*CONN
*I *803:mem_rdata[4] I *D memory_macro
*I *802:Do0[4] O *D DFFRAM512x32
*CAP
1 *803:mem_rdata[4] 0
2 *802:Do0[4] 0.00305891
3 *682:14 0.0129897
4 *682:12 0.0129897
5 *682:10 0.0473149
6 *682:8 0.0503739
7 *682:8 *683:13 0.00151308
8 *682:8 *684:8 0.00635923
9 *682:8 *685:12 0.0053115
10 *682:10 *803:cpu_mem_wdata[21] 0
11 *682:10 *748:15 0
12 *682:14 *803:cpu_mem_wdata[22] 0.00391653
13 *682:14 *683:25 0.000187578
14 *682:14 *684:14 0.0601623
15 *682:14 *687:28 0.00315894
16 *682:14 *723:9 0
17 *100:11 *682:10 0.00304653
18 *101:9 *682:10 0.00815163
19 *102:19 *682:8 0.000216247
20 *138:11 *682:10 0.000151879
21 *139:13 *682:10 0.000273383
22 *139:17 *682:10 0.0141941
23 *140:13 *682:8 0
24 *529:28 *682:14 0.00105871
25 *562:27 *682:14 0.000920329
26 *584:19 *682:14 0.000362904
27 *588:35 *682:14 0.000468851
28 *650:6 *682:14 0.0017227
29 *681:11 *682:8 0.0102756
30 *681:27 *682:14 0.0600295
*RES
1 *802:Do0[4] *682:8 28.7753 
2 *682:8 *682:10 1033.48 
3 *682:10 *682:12 3.41 
4 *682:12 *682:14 107.57 
5 *682:14 *803:mem_rdata[4] 3.41 
*END

*D_NET *683 0.34944
*CONN
*I *803:mem_rdata[5] I *D memory_macro
*I *802:Do0[5] O *D DFFRAM512x32
*CAP
1 *803:mem_rdata[5] 0
2 *802:Do0[5] 0.00530432
3 *683:25 0.0229278
4 *683:23 0.0243933
5 *683:15 0.0320682
6 *683:13 0.035907
7 *683:13 *684:8 0.000889483
8 *683:23 *803:cpu_mem_wdata[21] 0
9 *683:25 *803:cpu_mem_wdata[22] 0.00323343
10 *683:25 *684:14 0.0653447
11 *683:25 *687:28 0.00315904
12 *683:25 *687:30 0.0262214
13 *683:25 *749:11 0.00199461
14 *683:25 *750:11 0.0018274
15 *683:25 *751:11 0.00274072
16 *683:25 *754:19 0.00257545
17 *683:25 *754:29 0.0105628
18 *52:27 *683:15 0.00104585
19 *102:9 *683:15 0.00825251
20 *102:21 *683:13 0.00492246
21 *681:11 *683:13 0.0102328
22 *681:13 *683:15 0.0814113
23 *681:25 *683:23 0.00272501
24 *682:8 *683:13 0.00151308
25 *682:14 *683:25 0.000187578
*RES
1 *802:Do0[5] *683:13 34.3116 
2 *683:13 *683:15 999.482 
3 *683:15 *683:23 41.035 
4 *683:23 *683:25 114.705 
5 *683:25 *803:mem_rdata[5] 3.41 
*END

*D_NET *684 0.301466
*CONN
*I *803:mem_rdata[6] I *D memory_macro
*I *802:Do0[6] O *D DFFRAM512x32
*CAP
1 *803:mem_rdata[6] 0
2 *802:Do0[6] 0.00239001
3 *684:14 0.0138919
4 *684:12 0.0138919
5 *684:10 0.0579325
6 *684:8 0.0603225
7 *684:8 *685:12 0.0120127
8 *684:14 *687:30 0.00211097
9 *102:21 *684:8 0.000680146
10 *650:6 *684:14 0.00542522
11 *651:16 *684:14 5.27153e-05
12 *678:10 *684:10 0
13 *682:8 *684:8 0.00635923
14 *682:14 *684:14 0.0601623
15 *683:13 *684:8 0.000889483
16 *683:25 *684:14 0.0653447
*RES
1 *802:Do0[6] *684:8 25.8566 
2 *684:8 *684:10 181.367 
3 *684:10 *684:12 3.41 
4 *684:12 *684:14 112.147 
5 *684:14 *803:mem_rdata[6] 3.41 
*END

*D_NET *685 0.300472
*CONN
*I *803:mem_rdata[7] I *D memory_macro
*I *802:Do0[7] O *D DFFRAM512x32
*CAP
1 *803:mem_rdata[7] 0.000441383
2 *802:Do0[7] 0.00405025
3 *685:18 0.0363655
4 *685:16 0.0359241
5 *685:14 0.0478433
6 *685:12 0.0518936
7 *685:12 *687:16 0.0169784
8 *685:18 *803:cpu_mem_wdata[23] 0.00543661
9 *685:18 *723:9 0
10 *685:18 *754:19 0
11 *685:18 *757:9 0.00616154
12 *685:18 *758:9 0.0128227
13 *685:18 *790:17 0.0335689
14 *64:17 *685:14 0.0211949
15 *102:19 *685:12 0.000172462
16 *102:21 *685:12 0.000416212
17 *128:19 *685:14 0
18 *531:14 *685:18 0
19 *545:19 *685:18 0
20 *546:19 *685:18 0
21 *546:31 *685:18 0
22 *552:21 *685:18 0.0089622
23 *609:17 *685:18 0
24 *656:8 *685:12 0.00063771
25 *678:8 *685:12 0.000278181
26 *682:8 *685:12 0.0053115
27 *684:8 *685:12 0.0120127
*RES
1 *802:Do0[7] *685:12 39.1732 
2 *685:12 *685:14 179.556 
3 *685:14 *685:16 3.41 
4 *685:16 *685:18 129.01 
5 *685:18 *803:mem_rdata[7] 11.9725 
*END

*D_NET *686 0.285855
*CONN
*I *803:mem_rdata[8] I *D memory_macro
*I *802:Do0[8] O *D DFFRAM512x32
*CAP
1 *803:mem_rdata[8] 0.0566251
2 *802:Do0[8] 0.00499586
3 *686:18 0.121702
4 *686:16 0.0700732
5 *803:mem_rdata[8] *687:30 0.000229049
6 *803:mem_rdata[8] *752:25 0.00445348
7 *803:mem_rdata[8] *753:21 0.00347927
8 *803:mem_rdata[8] *754:29 0.00294417
9 *686:16 *687:16 0.00687072
10 *686:18 *687:18 0
11 *102:19 *686:16 0.00713199
12 *102:21 *686:16 0.000392834
13 *140:13 *686:16 0.00679897
14 *650:6 *803:mem_rdata[8] 0.0001579
*RES
1 *802:Do0[8] *686:16 46.7452 
2 *686:16 *686:18 181.367 
3 *686:18 *803:mem_rdata[8] 24.0011 
*END

*D_NET *687 0.279029
*CONN
*I *803:mem_rdata[9] I *D memory_macro
*I *802:Do0[9] O *D DFFRAM512x32
*CAP
1 *803:mem_rdata[9] 0.000104013
2 *802:Do0[9] 0.0063907
3 *687:30 0.0375705
4 *687:28 0.0381574
5 *687:18 0.0450736
6 *687:16 0.0507734
7 *687:30 *751:11 0.00496448
8 *687:30 *754:19 0.00115143
9 *803:mem_rdata[8] *687:30 0.000229049
10 *102:19 *687:16 0.00439211
11 *102:21 *687:16 0
12 *140:13 *687:16 0
13 *529:28 *687:30 0
14 *656:10 *687:18 0.031029
15 *667:8 *687:16 0.000415434
16 *678:8 *687:16 0.000278181
17 *682:14 *687:28 0.00315894
18 *683:25 *687:28 0.00315904
19 *683:25 *687:30 0.0262214
20 *684:14 *687:30 0.00211097
21 *685:12 *687:16 0.0169784
22 *686:16 *687:16 0.00687072
23 *686:18 *687:18 0
*RES
1 *802:Do0[9] *687:16 45.2456 
2 *687:16 *687:18 181.26 
3 *687:18 *687:28 17.2596 
4 *687:28 *687:30 764.875 
5 *687:30 *803:mem_rdata[9] 6.48214 
*END

*D_NET *688 0.100558
*CONN
*I *802:Di0[0] I *D DFFRAM512x32
*I *803:mem_wdata[0] O *D memory_macro
*CAP
1 *802:Di0[0] 0.00253929
2 *803:mem_wdata[0] 0.00530126
3 *688:9 0.0406013
4 *688:7 0.038062
5 *688:5 0.00530126
6 *802:Di0[0] *693:13 0.000930762
7 *802:Di0[0] *694:15 0.000930762
8 *688:9 *693:11 0.00594421
9 *688:9 *710:9 0
10 *63:13 *802:Di0[0] 0.000473504
11 *137:15 *802:Di0[0] 0.000473504
12 *658:14 *802:Di0[0] 0
*RES
1 *803:mem_wdata[0] *688:5 106.92 
2 *688:5 *688:7 3.41 
3 *688:7 *688:9 118.849 
4 *688:9 *802:Di0[0] 30.6258 
*END

*D_NET *689 0.115375
*CONN
*I *802:Di0[10] I *D DFFRAM512x32
*I *803:mem_wdata[10] O *D memory_macro
*CAP
1 *802:Di0[10] 0.000258597
2 *803:mem_wdata[10] 0.00608019
3 *689:13 0.00514702
4 *689:11 0.008687
5 *689:5 0.00987877
6 *689:11 *690:11 0.0170723
7 *689:13 *802:Di0[3] 0.00197452
8 *689:13 *690:13 0.00122289
9 *689:13 *695:5 0
10 *689:13 *718:13 0.0198281
11 *689:13 *719:13 0.0222056
12 *61:13 *689:11 0
13 *649:19 *689:11 0.000701177
14 *651:16 *689:11 0.00163494
15 *654:9 *689:11 0.0206842
*RES
1 *803:mem_wdata[10] *689:5 120.884 
2 *689:5 *689:11 39.1529 
3 *689:11 *689:13 299.446 
4 *689:13 *802:Di0[10] 3.94267 
*END

*D_NET *690 0.11958
*CONN
*I *802:Di0[11] I *D DFFRAM512x32
*I *803:mem_wdata[11] O *D memory_macro
*CAP
1 *802:Di0[11] 0.000176155
2 *803:mem_wdata[11] 0.00610903
3 *690:13 0.00493801
4 *690:11 0.00801578
5 *690:5 0.00936295
6 *690:11 *691:11 0.0135697
7 *690:13 *802:Di0[4] 0.00254319
8 *690:13 *691:13 0.0266764
9 *690:13 *694:15 1.68854e-05
10 *690:13 *695:5 0
11 *690:13 *719:13 0.0221579
12 *61:13 *690:11 0
13 *647:17 *690:11 0.00359741
14 *648:17 *690:11 0.00268588
15 *651:16 *690:11 0.00143557
16 *689:11 *690:11 0.0170723
17 *689:13 *690:13 0.00122289
*RES
1 *803:mem_wdata[11] *690:5 121.491 
2 *690:5 *690:11 33.5317 
3 *690:11 *690:13 327.982 
4 *690:13 *802:Di0[11] 3.7296 
*END

*D_NET *691 0.109733
*CONN
*I *802:Di0[12] I *D DFFRAM512x32
*I *803:mem_wdata[12] O *D memory_macro
*CAP
1 *802:Di0[12] 0.000317946
2 *803:mem_wdata[12] 0.00614551
3 *691:13 0.00530043
4 *691:11 0.00947599
5 *691:5 0.010639
6 *691:13 *802:Di0[1] 1.94945e-05
7 *691:13 *802:Di0[4] 0.00226243
8 *691:13 *692:21 0.0250493
9 *691:13 *694:15 0.00328807
10 *691:13 *694:17 0.000262565
11 *61:13 *691:11 0
12 *139:29 *691:11 0.00290463
13 *646:17 *691:11 0.00268588
14 *651:16 *691:11 0.00113561
15 *690:11 *691:11 0.0135697
16 *690:13 *691:13 0.0266764
*RES
1 *803:mem_wdata[12] *691:5 122.098 
2 *691:5 *691:11 27.9825 
3 *691:11 *691:13 354.089 
4 *691:13 *802:Di0[12] 3.94267 
*END

*D_NET *692 0.103413
*CONN
*I *802:Di0[13] I *D DFFRAM512x32
*I *803:mem_wdata[13] O *D memory_macro
*CAP
1 *802:Di0[13] 0.000141338
2 *803:mem_wdata[13] 0.00566252
3 *692:21 0.0053336
4 *692:19 0.00544947
5 *692:13 0.0020487
6 *692:11 0.00558869
7 *692:5 0.00945972
8 *692:5 *802:WE0[3] 0
9 *692:11 *694:11 0
10 *692:11 *710:9 0.0101193
11 *692:13 *802:Di0[2] 0.000679626
12 *692:13 *695:5 0
13 *692:13 *717:13 0.00449396
14 *692:19 *802:Di0[1] 6.05161e-06
15 *692:21 *802:Di0[4] 0.00156458
16 *692:21 *694:17 0.026969
17 *649:9 *692:11 0
18 *651:16 *692:11 0.000743786
19 *652:9 *692:11 0
20 *653:19 *692:13 0.000103838
21 *691:13 *692:21 0.0250493
*RES
1 *803:mem_wdata[13] *692:5 113.598 
2 *692:5 *692:11 23.0099 
3 *692:11 *692:13 55.8304 
4 *692:13 *692:19 12.4107 
5 *692:19 *692:21 336.027 
6 *692:21 *802:Di0[13] 3.7296 
*END

*D_NET *693 0.0838118
*CONN
*I *802:Di0[14] I *D DFFRAM512x32
*I *803:mem_wdata[14] O *D memory_macro
*CAP
1 *802:Di0[14] 0.000346862
2 *803:mem_wdata[14] 0.00534833
3 *693:13 0.0126679
4 *693:11 0.0147165
5 *693:5 0.00774388
6 *693:11 *710:9 0
7 *693:13 *694:15 0.00134159
8 *693:13 *694:17 0.0296333
9 *693:13 *715:13 0.00481939
10 *693:13 *719:13 0
11 *802:Di0[0] *693:13 0.000930762
12 *651:16 *693:11 0.000319005
13 *688:9 *693:11 0.00594421
*RES
1 *803:mem_wdata[14] *693:5 107.527 
2 *693:5 *693:11 16.8122 
3 *693:11 *693:13 424.518 
4 *693:13 *802:Di0[14] 3.94267 
*END

*D_NET *694 0.0981465
*CONN
*I *802:Di0[15] I *D DFFRAM512x32
*I *803:mem_wdata[15] O *D memory_macro
*CAP
1 *802:Di0[15] 0.000210164
2 *803:mem_wdata[15] 0.00590314
3 *694:17 0.00782332
4 *694:15 0.00854412
5 *694:11 0.00209698
6 *694:5 0.00706916
7 *694:15 *802:Di0[4] 0.000592386
8 *694:15 *719:13 6.46576e-05
9 *694:17 *802:Di0[1] 2.05695e-05
10 *802:Di0[0] *694:15 0.000930762
11 *651:16 *694:11 0.00044977
12 *652:9 *694:11 0.00293004
13 *674:18 *694:17 0
14 *690:13 *694:15 1.68854e-05
15 *691:13 *694:15 0.00328807
16 *691:13 *694:17 0.000262565
17 *692:11 *694:11 0
18 *692:21 *694:17 0.026969
19 *693:13 *694:15 0.00134159
20 *693:13 *694:17 0.0296333
*RES
1 *803:mem_wdata[15] *694:5 118.455 
2 *694:5 *694:11 11.4793 
3 *694:11 *694:15 44.9821 
4 *694:15 *694:17 397.804 
5 *694:17 *802:Di0[15] 3.83613 
*END

*D_NET *695 0.0612611
*CONN
*I *802:Di0[16] I *D DFFRAM512x32
*I *803:mem_wdata[16] O *D memory_macro
*CAP
1 *802:Di0[16] 0.000187982
2 *803:mem_wdata[16] 0.0206828
3 *695:5 0.0208708
4 *695:5 *802:Di0[2] 0.000812555
5 *695:5 *716:13 0
6 *695:5 *717:13 0
7 *695:5 *718:13 0
8 *79:32 *695:5 1.0562e-05
9 *653:19 *695:5 2.98694e-05
10 *662:15 *695:5 0.0186666
11 *674:18 *695:5 0
12 *689:13 *695:5 0
13 *690:13 *695:5 0
14 *692:13 *695:5 0
*RES
1 *803:mem_wdata[16] *695:5 590.205 
2 *695:5 *802:Di0[16] 3.974 
*END

*D_NET *696 0.0645683
*CONN
*I *802:Di0[17] I *D DFFRAM512x32
*I *803:mem_wdata[17] O *D memory_macro
*CAP
1 *802:Di0[17] 0.0021504
2 *803:mem_wdata[17] 0.0301337
3 *696:5 0.0322841
4 *137:19 *696:5 0
*RES
1 *803:mem_wdata[17] *696:5 618.134 
2 *696:5 *802:Di0[17] 9.45107 
*END

*D_NET *697 0.0713183
*CONN
*I *802:Di0[18] I *D DFFRAM512x32
*I *803:mem_wdata[18] O *D memory_macro
*CAP
1 *802:Di0[18] 0.00416959
2 *803:mem_wdata[18] 0.0314895
3 *697:5 0.0356591
*RES
1 *803:mem_wdata[18] *697:5 646.062 
2 *697:5 *802:Di0[18] 14.9281 
*END

*D_NET *698 0.0779924
*CONN
*I *802:Di0[19] I *D DFFRAM512x32
*I *803:mem_wdata[19] O *D memory_macro
*CAP
1 *802:Di0[19] 0.00614964
2 *803:mem_wdata[19] 0.0328466
3 *698:5 0.0389962
*RES
1 *803:mem_wdata[19] *698:5 673.991 
2 *698:5 *802:Di0[19] 20.4052 
*END

*D_NET *699 0.140707
*CONN
*I *802:Di0[1] I *D DFFRAM512x32
*I *803:mem_wdata[1] O *D memory_macro
*CAP
1 *802:Di0[1] 0.000640097
2 *803:mem_wdata[1] 0.00413765
3 *699:13 0.00362201
4 *699:11 0.00298191
5 *699:9 0.0249761
6 *699:7 0.0249761
7 *699:5 0.00413765
8 *802:Di0[1] *802:Di0[4] 0.000322558
9 *699:5 *802:WE0[0] 0
10 *699:13 *715:13 0.00680526
11 *106:13 *699:9 0.068061
12 *530:14 *699:9 0
13 *691:13 *802:Di0[1] 1.94945e-05
14 *692:19 *802:Di0[1] 6.05161e-06
15 *694:17 *802:Di0[1] 2.05695e-05
*RES
1 *803:mem_wdata[1] *699:5 83.2411 
2 *699:5 *699:7 3.41 
3 *699:7 *699:9 108.291 
4 *699:9 *699:11 3.41 
5 *699:11 *699:13 85.5804 
6 *699:13 *802:Di0[1] 15.8087 
*END

*D_NET *700 0.0837218
*CONN
*I *802:Di0[20] I *D DFFRAM512x32
*I *803:mem_wdata[20] O *D memory_macro
*CAP
1 *802:Di0[20] 0.00765694
2 *803:mem_wdata[20] 0.034204
3 *700:5 0.0418609
*RES
1 *803:mem_wdata[20] *700:5 701.92 
2 *700:5 *802:Di0[20] 25.8823 
*END

*D_NET *701 0.108791
*CONN
*I *802:Di0[21] I *D DFFRAM512x32
*I *803:mem_wdata[21] O *D memory_macro
*CAP
1 *802:Di0[21] 0.000587189
2 *803:mem_wdata[21] 0.00914997
3 *701:10 0.0160569
4 *701:8 0.0246196
5 *803:mem_rdata[12] *701:8 0.000258603
6 *562:43 *701:8 3.07226e-05
7 *648:21 *701:10 0.00180623
8 *651:18 *701:10 0.0111531
9 *660:15 *701:10 0.0219741
10 *661:15 *701:10 0.0231543
*RES
1 *803:mem_wdata[21] *701:8 33.2434 
2 *701:8 *701:10 732.339 
3 *701:10 *802:Di0[21] 4.98293 
*END

*D_NET *702 0.0963784
*CONN
*I *802:Di0[22] I *D DFFRAM512x32
*I *803:mem_wdata[22] O *D memory_macro
*CAP
1 *802:Di0[22] 0.01127
2 *803:mem_wdata[22] 0.0369193
3 *702:5 0.0481892
*RES
1 *803:mem_wdata[22] *702:5 757.777 
2 *702:5 *802:Di0[22] 36.8364 
*END

*D_NET *703 0.105521
*CONN
*I *802:Di0[23] I *D DFFRAM512x32
*I *803:mem_wdata[23] O *D memory_macro
*CAP
1 *802:Di0[23] 0.0124121
2 *803:mem_wdata[23] 0.00147785
3 *703:10 0.0507377
4 *703:8 0.0398034
5 *529:28 *703:8 0.00108993
*RES
1 *803:mem_wdata[23] *703:8 11.0469 
2 *703:8 *703:10 786.375 
3 *703:10 *802:Di0[23] 38.1336 
*END

*D_NET *704 0.120724
*CONN
*I *802:Di0[24] I *D DFFRAM512x32
*I *803:mem_wdata[24] O *D memory_macro
*CAP
1 *802:Di0[24] 0.00666408
2 *803:mem_wdata[24] 0.00868303
3 *704:13 0.0332917
4 *704:11 0.0353107
5 *803:mem_rdata[20] *704:13 0.036774
6 *531:14 *704:11 0
*RES
1 *803:mem_wdata[24] *704:11 40.2204 
2 *704:11 *704:13 805.196 
3 *704:13 *802:Di0[24] 22.9996 
*END

*D_NET *705 0.115804
*CONN
*I *802:Di0[25] I *D DFFRAM512x32
*I *803:mem_wdata[25] O *D memory_macro
*CAP
1 *802:Di0[25] 0.0163156
2 *803:mem_wdata[25] 0.000426529
3 *705:12 0.0163156
4 *705:10 0.0410008
5 *705:8 0.0414273
6 *529:28 *705:8 0.000318124
*RES
1 *803:mem_wdata[25] *705:8 7.948 
2 *705:8 *705:10 841.625 
3 *705:10 *705:12 3.41 
4 *705:12 *802:Di0[25] 48.7766 
*END

*D_NET *706 0.124521
*CONN
*I *802:Di0[26] I *D DFFRAM512x32
*I *803:mem_wdata[26] O *D memory_macro
*CAP
1 *802:Di0[26] 0.0193431
2 *803:mem_wdata[26] 0.00039778
3 *706:12 0.0193431
4 *706:10 0.0423506
5 *706:8 0.0427483
6 *529:28 *706:8 0.000338449
*RES
1 *803:mem_wdata[26] *706:8 8.02007 
2 *706:8 *706:10 869.554 
3 *706:10 *706:12 3.41 
4 *706:12 *802:Di0[26] 54.1816 
*END

*D_NET *707 0.164334
*CONN
*I *802:Di0[27] I *D DFFRAM512x32
*I *803:mem_wdata[27] O *D memory_macro
*CAP
1 *802:Di0[27] 0.00298747
2 *803:mem_wdata[27] 0.00527292
3 *707:13 0.0271844
4 *707:11 0.0241969
5 *707:9 0.0174769
6 *707:7 0.0174769
7 *707:5 0.00527292
8 *803:mem_rdata[18] *707:13 0.0644656
*RES
1 *803:mem_wdata[27] *707:5 106.92 
2 *707:5 *707:7 3.41 
3 *707:7 *707:9 52.0071 
4 *707:9 *707:11 3.41 
5 *707:11 *707:13 790.625 
6 *707:13 *802:Di0[27] 12.2617 
*END

*D_NET *708 0.134388
*CONN
*I *802:Di0[28] I *D DFFRAM512x32
*I *803:mem_wdata[28] O *D memory_macro
*CAP
1 *802:Di0[28] 0.0152165
2 *803:mem_wdata[28] 0.00731512
3 *708:13 0.0598789
4 *708:11 0.0519775
5 *531:14 *708:11 0
*RES
1 *803:mem_wdata[28] *708:11 36.1847 
2 *708:11 *708:13 916.911 
3 *708:13 *802:Di0[28] 48.9436 
*END

*D_NET *709 0.140543
*CONN
*I *802:Di0[29] I *D DFFRAM512x32
*I *803:mem_wdata[29] O *D memory_macro
*CAP
1 *802:Di0[29] 0.0226579
2 *803:mem_wdata[29] 0.00172065
3 *709:15 0.0226579
4 *709:13 0.0458931
5 *709:11 0.0476137
6 *531:14 *709:11 0
*RES
1 *803:mem_wdata[29] *709:11 20.7822 
2 *709:11 *709:13 943.018 
3 *709:13 *709:15 3.41 
4 *709:15 *802:Di0[29] 68.2346 
*END

*D_NET *710 0.107671
*CONN
*I *802:Di0[2] I *D DFFRAM512x32
*I *803:mem_wdata[2] O *D memory_macro
*CAP
1 *802:Di0[2] 0.00387474
2 *803:mem_wdata[2] 0.00558933
3 *710:9 0.0344756
4 *710:7 0.0306008
5 *710:5 0.00558933
6 *802:Di0[2] *802:Di0[3] 0.00709589
7 *802:Di0[2] *716:13 0.0015171
8 *802:Di0[2] *717:13 0.00140237
9 *802:Di0[2] *718:13 0.00125677
10 *79:32 *802:Di0[2] 0
11 *646:9 *710:9 0
12 *647:9 *710:9 0
13 *649:9 *710:9 0
14 *651:16 *710:9 0.00465768
15 *688:9 *710:9 0
16 *692:11 *710:9 0.0101193
17 *692:13 *802:Di0[2] 0.000679626
18 *693:11 *710:9 0
19 *695:5 *802:Di0[2] 0.000812555
*RES
1 *803:mem_wdata[2] *710:5 112.991 
2 *710:5 *710:7 3.41 
3 *710:7 *710:9 98.0937 
4 *710:9 *802:Di0[2] 21.9947 
*END

*D_NET *711 0.148658
*CONN
*I *802:Di0[30] I *D DFFRAM512x32
*I *803:mem_wdata[30] O *D memory_macro
*CAP
1 *802:Di0[30] 0.012741
2 *803:mem_wdata[30] 0.00584596
3 *711:13 0.0546686
4 *711:11 0.0557421
5 *711:5 0.0196604
6 *803:mem_rdata[23] *711:13 0
*RES
1 *803:mem_wdata[30] *711:5 119.062 
2 *711:5 *711:11 48.3053 
3 *711:11 *711:13 862.268 
4 *711:13 *802:Di0[30] 39.2146 
*END

*D_NET *712 0.1537
*CONN
*I *802:Di0[31] I *D DFFRAM512x32
*I *803:mem_wdata[31] O *D memory_macro
*CAP
1 *802:Di0[31] 0.0106576
2 *803:mem_wdata[31] 0.00131969
3 *712:13 0.0585071
4 *712:11 0.0478495
5 *712:9 0.017023
6 *712:7 0.0183427
*RES
1 *803:mem_wdata[31] *712:7 30.1868 
2 *712:7 *712:9 51.2864 
3 *712:9 *712:11 3.41 
4 *712:11 *712:13 982.482 
5 *712:13 *802:Di0[31] 34.8906 
*END

*D_NET *713 0.135161
*CONN
*I *802:Di0[3] I *D DFFRAM512x32
*I *803:mem_wdata[3] O *D memory_macro
*CAP
1 *802:Di0[3] 0.00469097
2 *803:mem_wdata[3] 0.00348083
3 *713:9 0.0230296
4 *713:7 0.0183386
5 *713:5 0.00348083
6 *802:Di0[3] *802:Di0[4] 0.0129582
7 *802:Di0[3] *716:13 0.00079502
8 *802:Di0[3] *717:13 0.000571669
9 *802:Di0[3] *718:13 0.00117696
10 *802:Di0[3] *719:13 0.00176513
11 io_out[1] *713:9 0
12 *802:Di0[2] *802:Di0[3] 0.00709589
13 *68:13 *713:9 0.0558027
14 *689:13 *802:Di0[3] 0.00197452
*RES
1 *803:mem_wdata[3] *713:5 70.4911 
2 *713:5 *713:7 3.41 
3 *713:7 *713:9 86.9954 
4 *713:9 *802:Di0[3] 34.3526 
*END

*D_NET *714 0.10117
*CONN
*I *802:Di0[4] I *D DFFRAM512x32
*I *803:mem_wdata[4] O *D memory_macro
*CAP
1 *802:Di0[4] 0.0117349
2 *803:mem_wdata[4] 0.00286265
3 *714:9 0.0369109
4 *714:7 0.025176
5 *714:5 0.00286265
6 *802:Di0[4] *716:13 0.000349323
7 *802:Di0[4] *717:13 0.000349323
8 *802:Di0[4] *718:13 0.000349323
9 *802:Di0[4] *719:13 0.00033138
10 *714:9 *716:9 0
11 *802:Di0[1] *802:Di0[4] 0.000322558
12 *802:Di0[3] *802:Di0[4] 0.0129582
13 *30:17 *714:9 0
14 *690:13 *802:Di0[4] 0.00254319
15 *691:13 *802:Di0[4] 0.00226243
16 *692:21 *802:Di0[4] 0.00156458
17 *694:15 *802:Di0[4] 0.000592386
*RES
1 *803:mem_wdata[4] *714:5 57.7411 
2 *714:5 *714:7 3.41 
3 *714:7 *714:9 75.8972 
4 *714:9 *802:Di0[4] 41.4903 
*END

*D_NET *715 0.0788356
*CONN
*I *802:Di0[5] I *D DFFRAM512x32
*I *803:mem_wdata[5] O *D memory_macro
*CAP
1 *802:Di0[5] 0.000535868
2 *803:mem_wdata[5] 0.00196762
3 *715:13 0.00943515
4 *715:11 0.00889928
5 *715:9 0.022193
6 *715:7 0.0241606
7 *802:Di0[5] *717:13 1.94945e-05
8 *715:13 *718:13 0
9 *715:13 *719:13 0
10 *693:13 *715:13 0.00481939
11 *699:13 *715:13 0.00680526
*RES
1 *803:mem_wdata[5] *715:7 42.9368 
2 *715:7 *715:9 67.2852 
3 *715:9 *715:11 3.41 
4 *715:11 *715:13 243.438 
5 *715:13 *802:Di0[5] 18.4268 
*END

*D_NET *716 0.0949266
*CONN
*I *802:Di0[6] I *D DFFRAM512x32
*I *803:mem_wdata[6] O *D memory_macro
*CAP
1 *802:Di0[6] 0.000431102
2 *803:mem_wdata[6] 0.00317597
3 *716:13 0.00443061
4 *716:11 0.00399951
5 *716:9 0.0203803
6 *716:7 0.0203803
7 *716:5 0.00317597
8 *716:13 *717:13 0.0173843
9 *716:13 *718:13 0.0189071
10 *802:Di0[2] *716:13 0.0015171
11 *802:Di0[3] *716:13 0.00079502
12 *802:Di0[4] *716:13 0.000349323
13 *68:13 *716:9 0
14 *695:5 *716:13 0
15 *714:9 *716:9 0
*RES
1 *803:mem_wdata[6] *716:5 63.8125 
2 *716:5 *716:7 3.41 
3 *716:7 *716:9 59.8623 
4 *716:9 *716:11 3.41 
5 *716:11 *716:13 244.804 
6 *716:13 *802:Di0[6] 4.01473 
*END

*D_NET *717 0.08291
*CONN
*I *802:Di0[7] I *D DFFRAM512x32
*I *803:mem_wdata[7] O *D memory_macro
*CAP
1 *802:Di0[7] 8.55979e-05
2 *803:mem_wdata[7] 0.00471857
3 *717:13 0.00674237
4 *717:11 0.00665677
5 *717:9 0.0171926
6 *717:7 0.0171926
7 *717:5 0.00471857
8 *717:9 *719:11 0
9 *717:13 *718:13 0.00138181
10 *802:Di0[2] *717:13 0.00140237
11 *802:Di0[3] *717:13 0.000571669
12 *802:Di0[4] *717:13 0.000349323
13 *802:Di0[5] *717:13 1.94945e-05
14 *530:14 *717:9 0
15 *692:13 *717:13 0.00449396
16 *695:5 *717:13 0
17 *716:13 *717:13 0.0173843
*RES
1 *803:mem_wdata[7] *717:5 94.7768 
2 *717:5 *717:7 3.41 
3 *717:7 *717:9 51.7188 
4 *717:9 *717:11 3.41 
5 *717:11 *717:13 244.196 
6 *717:13 *802:Di0[7] 3.61367 
*END

*D_NET *718 0.0979081
*CONN
*I *802:Di0[8] I *D DFFRAM512x32
*I *803:mem_wdata[8] O *D memory_macro
*CAP
1 *802:Di0[8] 0.000330438
2 *803:mem_wdata[8] 0.00388868
3 *718:13 0.00497042
4 *718:11 0.00463999
5 *718:9 0.0100901
6 *718:5 0.0139787
7 *718:13 *719:13 0.00140412
8 io_out[1] *718:9 0.0157057
9 *802:Di0[2] *718:13 0.00125677
10 *802:Di0[3] *718:13 0.00117696
11 *802:Di0[4] *718:13 0.000349323
12 *689:13 *718:13 0.0198281
13 *695:5 *718:13 0
14 *715:13 *718:13 0
15 *716:13 *718:13 0.0189071
16 *717:13 *718:13 0.00138181
*RES
1 *803:mem_wdata[8] *718:5 75.9554 
2 *718:5 *718:9 46.7691 
3 *718:9 *718:11 3.41 
4 *718:11 *718:13 288.518 
5 *718:13 *802:Di0[8] 3.94267 
*END

*D_NET *719 0.107096
*CONN
*I *802:Di0[9] I *D DFFRAM512x32
*I *803:mem_wdata[9] O *D memory_macro
*CAP
1 *802:Di0[9] 0.000218878
2 *803:mem_wdata[9] 0.00458829
3 *719:13 0.00482526
4 *719:11 0.0126943
5 *719:5 0.0126762
6 *802:Di0[3] *719:13 0.00176513
7 *802:Di0[4] *719:13 0.00033138
8 *530:14 *719:11 0.0241646
9 *689:13 *719:13 0.0222056
10 *690:13 *719:13 0.0221579
11 *693:13 *719:13 0
12 *694:15 *719:13 6.46576e-05
13 *715:13 *719:13 0
14 *717:9 *719:11 0
15 *718:13 *719:13 0.00140412
*RES
1 *803:mem_wdata[9] *719:5 89.3125 
2 *719:5 *719:11 44.5579 
3 *719:11 *719:13 304.304 
4 *719:13 *802:Di0[9] 3.7296 
*END

*D_NET *720 0.0182769
*CONN
*I *802:WE0[0] I *D DFFRAM512x32
*I *803:mem_we[0] O *D memory_macro
*CAP
1 *802:WE0[0] 0.00439776
2 *803:mem_we[0] 0.00474069
3 *720:11 0.00913845
4 *667:14 *720:11 0
5 *699:5 *802:WE0[0] 0
*RES
1 *803:mem_we[0] *720:11 48.4353 
2 *720:11 *802:WE0[0] 88.7054 
*END

*D_NET *721 0.0334243
*CONN
*I *802:WE0[1] I *D DFFRAM512x32
*I *803:mem_we[1] O *D memory_macro
*CAP
1 *802:WE0[1] 0.00377295
2 *803:mem_we[1] 0.00229313
3 *721:11 0.0126407
4 *721:7 0.0111609
5 *30:17 *721:11 0
6 *678:14 *721:11 0.00355668
*RES
1 *803:mem_we[1] *721:7 49.6154 
2 *721:7 *721:11 32.2116 
3 *721:11 *802:WE0[1] 75.3482 
*END

*D_NET *722 0.0656839
*CONN
*I *802:WE0[2] I *D DFFRAM512x32
*I *803:mem_we[2] O *D memory_macro
*CAP
1 *802:WE0[2] 0.00546042
2 *803:mem_we[2] 0.000816047
3 *722:11 0.00546042
4 *722:9 0.011241
5 *722:7 0.0120571
6 *41:5 *722:9 0.0306489
*RES
1 *803:mem_we[2] *722:7 19.2582 
2 *722:7 *722:9 48.7641 
3 *722:9 *722:11 3.41 
4 *722:11 *802:WE0[2] 105.705 
*END

*D_NET *723 0.0606699
*CONN
*I *802:WE0[3] I *D DFFRAM512x32
*I *803:mem_we[3] O *D memory_macro
*CAP
1 *802:WE0[3] 0.00607278
2 *803:mem_we[3] 0.000130362
3 *723:11 0.00607278
4 *723:9 0.0210327
5 *723:7 0.0211631
6 *803:mem_rdata[13] *723:9 9.97767e-06
7 *588:51 *723:9 9.13473e-05
8 *650:6 *723:9 0.0060968
9 *682:14 *723:9 0
10 *685:18 *723:9 0
11 *692:5 *802:WE0[3] 0
*RES
1 *803:mem_we[3] *723:7 5.90107 
2 *723:7 *723:9 68.7986 
3 *723:9 *723:11 3.41 
4 *723:11 *802:WE0[3] 119.062 
*END

*D_NET *724 0.173317
*CONN
*I *803:cpu_mem_addr[0] I *D memory_macro
*I *804:mem_addr[0] O *D picorv32_soc
*CAP
1 *803:cpu_mem_addr[0] 0.00076905
2 *804:mem_addr[0] 0.000104264
3 *724:14 0.0347985
4 *724:12 0.0340295
5 *724:10 0.0345991
6 *724:8 0.0347033
7 *724:8 *804:mem_rdata[10] 0.00017962
8 *724:8 *804:mem_rdata[12] 0.00017962
9 *724:10 *734:13 0.0058318
10 *724:10 *765:13 0
11 *531:14 *724:14 0.0281225
*RES
1 *804:mem_addr[0] *724:8 7.11923 
2 *724:8 *724:10 112.227 
3 *724:10 *724:12 3.41 
4 *724:12 *724:14 112.291 
5 *724:14 *803:cpu_mem_addr[0] 18.6511 
*END

*D_NET *725 0.208321
*CONN
*I *803:cpu_mem_addr[1] I *D memory_macro
*I *804:mem_addr[1] O *D picorv32_soc
*CAP
1 *803:cpu_mem_addr[1] 0.00396549
2 *804:mem_addr[1] 0.000193118
3 *725:23 0.0358758
4 *725:21 0.0319103
5 *725:19 0.00795087
6 *725:17 0.0081404
7 *725:11 0.00411438
8 *725:9 0.00411797
9 *803:cpu_mem_addr[1] *803:cpu_mem_we[0] 0
10 *803:cpu_mem_addr[1] *803:cpu_mem_we[1] 0.000190511
11 *725:11 *804:mem_rdata[12] 0.00587377
12 *725:11 *786:14 0.0016722
13 *725:11 *799:11 0.00967568
14 *725:19 *726:19 0.0377553
15 *725:19 *726:25 0.00191787
16 *725:19 *791:9 0.0416424
17 *725:19 *798:11 0.000489997
18 *725:23 *726:27 0
19 *725:23 *756:18 0
20 *725:23 *788:25 0.0123937
21 *725:23 *800:13 0
22 *121:12 *725:19 0.000441615
23 *126:11 *725:23 0
24 *609:17 *803:cpu_mem_addr[1] 0
*RES
1 *804:mem_addr[1] *725:9 6.48214 
2 *725:9 *725:11 119.232 
3 *725:11 *725:17 10.6154 
4 *725:17 *725:19 66.6366 
5 *725:19 *725:21 3.41 
6 *725:21 *725:23 648.554 
7 *725:23 *803:cpu_mem_addr[1] 25.735 
*END

*D_NET *726 0.220302
*CONN
*I *803:cpu_mem_addr[2] I *D memory_macro
*I *804:mem_addr[2] O *D picorv32_soc
*CAP
1 *803:cpu_mem_addr[2] 0.000325254
2 *804:mem_addr[2] 0.000301256
3 *726:27 0.0207298
4 *726:25 0.021517
5 *726:19 0.0087874
6 *726:17 0.00774035
7 *726:11 0.000868369
8 *726:9 0.00110425
9 *803:cpu_mem_addr[2] *803:cpu_mem_wdata[2] 0.000244652
10 *803:cpu_mem_addr[2] *803:cpu_mem_wdata[3] 9.46726e-05
11 *726:11 *804:mem_rdata[10] 0.00156186
12 *726:11 *784:19 0.00683376
13 *726:11 *785:14 0.00678757
14 *726:19 *804:mem_rdata[10] 0.00120646
15 *726:19 *730:12 0.000393285
16 *726:19 *731:21 0.00199464
17 *726:19 *786:14 0.00212059
18 *726:19 *791:9 0.00103561
19 *726:19 *799:19 0.0369248
20 *726:19 *799:25 0.000606353
21 *726:25 *791:9 0.000109291
22 *726:25 *799:25 0.000654178
23 *726:27 *791:13 0.0534162
24 *804:io_in[23] *726:25 0.000653347
25 *83:8 *726:25 0.00175353
26 *121:12 *726:25 0.000441615
27 *127:9 *726:27 0.0024223
28 *545:19 *803:cpu_mem_addr[2] 0
29 *609:17 *803:cpu_mem_addr[2] 0
30 *725:19 *726:19 0.0377553
31 *725:19 *726:25 0.00191787
32 *725:23 *726:27 0
*RES
1 *804:mem_addr[2] *726:9 6.48214 
2 *726:9 *726:11 64.1964 
3 *726:11 *726:17 8.79393 
4 *726:17 *726:19 66.3123 
5 *726:19 *726:25 10.7091 
6 *726:25 *726:27 656.446 
7 *726:27 *803:cpu_mem_addr[2] 8.02007 
*END

*D_NET *727 0.198248
*CONN
*I *803:cpu_mem_addr[3] I *D memory_macro
*I *804:mem_addr[3] O *D picorv32_soc
*CAP
1 *803:cpu_mem_addr[3] 0.00588296
2 *804:mem_addr[3] 0.024328
3 *727:24 0.00735843
4 *727:18 0.0286262
5 *727:16 0.0514787
6 *727:16 *804:mem_rdata[10] 0.00205959
7 *727:16 *804:mem_rdata[12] 0.000556264
8 *727:16 *804:mem_rdata[16] 0.000261211
9 *727:16 *804:mem_rdata[1] 0.0129614
10 *727:16 *804:mem_rdata[3] 1.35877e-05
11 *727:16 *804:mem_rdata[5] 0.000114284
12 *727:16 *804:mem_rdata[6] 0.000398459
13 *727:16 *804:mem_rdata[9] 0.000137138
14 *727:16 *741:21 0.0024095
15 *727:16 *784:17 0.00323381
16 *727:16 *785:12 0.00280846
17 *727:16 *786:12 0.000552638
18 *727:16 *799:25 0.00118299
19 *727:16 *801:16 0.000158108
20 *727:18 *756:18 0.00860104
21 *727:18 *788:25 0.001558
22 *727:18 *800:13 0.00960361
23 *727:24 *759:11 0.00707786
24 *727:24 *800:19 0.00531635
25 *804:io_in[23] *727:16 0.000427123
26 *83:8 *727:16 0.000153516
27 *97:8 *727:18 0.00479138
28 *126:11 *727:18 0.00299145
29 *129:13 *727:18 0.0107762
30 *131:9 *727:18 0.00239023
31 *529:26 *727:24 3.99154e-05
*RES
1 *804:mem_addr[3] *727:16 17.1727 
2 *727:16 *727:18 93.7963 
3 *727:18 *727:24 17.9292 
4 *727:24 *803:cpu_mem_addr[3] 119.67 
*END

*D_NET *728 0.221123
*CONN
*I *803:cpu_mem_addr[4] I *D memory_macro
*I *804:mem_addr[4] O *D picorv32_soc
*CAP
1 *803:cpu_mem_addr[4] 0.00597387
2 *804:mem_addr[4] 0.000172254
3 *728:45 0.0104444
4 *728:19 0.0141934
5 *728:17 0.00972288
6 *728:15 0.00703822
7 *728:13 0.00703822
8 *728:11 0.00205103
9 *728:9 0.00222328
10 *728:11 *729:11 0.0104212
11 *728:11 *730:12 0.00206374
12 *728:11 *792:9 0
13 *728:11 *798:11 0.00647405
14 *728:15 *729:15 0.0435558
15 *728:15 *730:14 0.00644459
16 *728:15 *795:13 0.043578
17 *728:19 *731:27 0.0064247
18 *728:19 *760:17 0.029004
19 *728:19 *794:17 0.000605038
20 *728:45 *803:cpu_mem_addr[6] 0.000381662
21 *728:45 *760:15 0.00294985
22 *728:45 *762:9 0.000678654
23 *728:45 *792:33 0.00663059
24 *68:11 *728:15 0.000778773
25 *70:9 *728:15 0.00227449
*RES
1 *804:mem_addr[4] *728:9 6.07143 
2 *728:9 *728:11 98.6964 
3 *728:11 *728:13 4.5 
4 *728:13 *728:15 535.929 
5 *728:15 *728:17 4.5 
6 *728:17 *728:19 288.446 
7 *728:19 *728:45 34.4952 
8 *728:45 *803:cpu_mem_addr[4] 120.884 
*END

*D_NET *729 0.243722
*CONN
*I *803:cpu_mem_addr[5] I *D memory_macro
*I *804:mem_addr[5] O *D picorv32_soc
*CAP
1 *803:cpu_mem_addr[5] 0.00583347
2 *804:mem_addr[5] 0.000124319
3 *729:29 0.00867127
4 *729:19 0.00616178
5 *729:17 0.00332397
6 *729:15 0.00716622
7 *729:13 0.00716622
8 *729:11 0.00157089
9 *729:9 0.00169521
10 *729:11 *731:21 0.00218134
11 *729:11 *785:14 0.0120211
12 *729:11 *791:9 0.000125826
13 *729:11 *798:11 0.000854543
14 *729:15 *730:14 0.00595589
15 *729:15 *760:21 0.0429673
16 *729:15 *762:13 0.00012698
17 *729:15 *795:13 3.08351e-05
18 *729:15 *796:13 0
19 *729:19 *761:17 0.0216428
20 *729:19 *792:17 0.0244683
21 *729:19 *793:17 0.000340889
22 *729:19 *794:17 0.00548814
23 *729:29 *803:cpu_mem_addr[6] 0.00209344
24 *729:29 *803:cpu_mem_addr[8] 0
25 *729:29 *760:15 0.0105434
26 *729:29 *761:15 0.0136108
27 *729:29 *762:9 0.00249432
28 *729:29 *763:19 0.000356018
29 *68:11 *729:15 0.000696188
30 *70:9 *729:15 0.00203329
31 *728:11 *729:11 0.0104212
32 *728:15 *729:15 0.0435558
*RES
1 *804:mem_addr[5] *729:9 6.07143 
2 *729:9 *729:11 113.893 
3 *729:11 *729:13 4.5 
4 *729:13 *729:15 536.536 
5 *729:15 *729:17 4.5 
6 *729:17 *729:19 230.125 
7 *729:19 *729:29 37.3913 
8 *729:29 *803:cpu_mem_addr[5] 117.848 
*END

*D_NET *730 0.261852
*CONN
*I *803:cpu_mem_addr[6] I *D memory_macro
*I *804:mem_addr[6] O *D picorv32_soc
*CAP
1 *803:cpu_mem_addr[6] 0.0302267
2 *804:mem_addr[6] 0.00396353
3 *730:14 0.0655681
4 *730:12 0.0393049
5 *803:cpu_mem_addr[6] *731:27 0.00251488
6 *803:cpu_mem_addr[6] *732:19 0.00478301
7 *803:cpu_mem_addr[6] *760:15 0.00118106
8 *803:cpu_mem_addr[6] *761:15 0.00239567
9 *803:cpu_mem_addr[6] *762:9 0.00389145
10 *803:cpu_mem_addr[6] *763:19 0.000159502
11 *803:cpu_mem_addr[6] *763:23 0.00181436
12 *803:cpu_mem_addr[6] *764:11 0.00428257
13 *803:cpu_mem_addr[6] *765:11 0.00683105
14 *803:cpu_mem_addr[6] *792:33 0.000452305
15 *803:cpu_mem_addr[6] *793:27 0.00665102
16 *803:cpu_mem_addr[6] *794:17 0.00317992
17 *803:cpu_mem_addr[6] *795:19 0.00220227
18 *730:12 *804:mem_rdata[10] 0.00172128
19 *730:12 *731:21 0.0127432
20 *730:12 *732:11 0.00289637
21 *730:12 *770:11 0.000115064
22 *730:12 *788:23 0.000142445
23 *730:12 *791:9 0.00153834
24 *730:12 *798:11 0.00189006
25 *730:14 *735:30 0.00896197
26 *730:14 *736:26 0.00896197
27 *730:14 *760:21 0.00324997
28 *730:14 *762:13 0.00325209
29 *730:14 *769:15 0
30 *730:14 *795:13 0.0100251
31 *67:9 *730:14 0.000535477
32 *68:11 *730:14 0.00240273
33 *69:9 *730:14 0.000989578
34 *70:9 *730:14 0.00564183
35 *584:19 *803:cpu_mem_addr[6] 4.98422e-05
36 *726:19 *730:12 0.000393285
37 *728:11 *730:12 0.00206374
38 *728:15 *730:14 0.00644459
39 *728:45 *803:cpu_mem_addr[6] 0.000381662
40 *729:15 *730:14 0.00595589
41 *729:29 *803:cpu_mem_addr[6] 0.00209344
*RES
1 *804:mem_addr[6] *730:12 29.5884 
2 *730:12 *730:14 94.7551 
3 *730:14 *803:cpu_mem_addr[6] 34.6414 
*END

*D_NET *731 0.234204
*CONN
*I *803:cpu_mem_addr[7] I *D memory_macro
*I *804:mem_addr[7] O *D picorv32_soc
*CAP
1 *803:cpu_mem_addr[7] 0.00597049
2 *804:mem_addr[7] 0.00296891
3 *731:29 0.00597049
4 *731:27 0.00537191
5 *731:25 0.00537191
6 *731:23 0.00679254
7 *731:21 0.00976146
8 *803:cpu_mem_addr[7] *760:15 0.000150238
9 *731:21 *804:mem_rdata[10] 0.0123866
10 *731:21 *785:14 0.00235273
11 *731:21 *791:9 0.00306382
12 *731:21 *798:11 0.000496389
13 *731:23 *732:13 0.0436816
14 *731:23 *761:21 0.0433519
15 *731:27 *760:17 0.0063707
16 *731:27 *763:19 0.00341667
17 *731:27 *763:23 0.0137387
18 *731:27 *792:33 0.00160701
19 *731:27 *794:17 0.0299014
20 *803:cpu_mem_addr[6] *731:27 0.00251488
21 *804:io_in[3] *731:23 0.000824822
22 *79:8 *731:23 0.00162837
23 *79:10 *731:27 2.86613e-05
24 *531:12 *803:cpu_mem_addr[7] 0.00313843
25 *726:19 *731:21 0.00199464
26 *728:19 *731:27 0.0064247
27 *729:11 *731:21 0.00218134
28 *730:12 *731:21 0.0127432
*RES
1 *804:mem_addr[7] *731:21 40.421 
2 *731:21 *731:23 535.625 
3 *731:23 *731:25 3.41 
4 *731:25 *731:27 46.7462 
5 *731:27 *731:29 3.41 
6 *731:29 *803:cpu_mem_addr[7] 120.277 
*END

*D_NET *732 0.210822
*CONN
*I *803:cpu_mem_addr[8] I *D memory_macro
*I *804:mem_addr[8] O *D picorv32_soc
*CAP
1 *803:cpu_mem_addr[8] 0.00589961
2 *804:mem_addr[8] 0.00380898
3 *732:19 0.00977735
4 *732:13 0.010807
5 *732:11 0.0107383
6 *732:11 *770:11 0.0168046
7 *732:11 *788:23 0.000268683
8 *732:11 *791:9 0.00765535
9 *732:13 *737:28 0.000100678
10 *732:13 *761:21 2.11068e-05
11 *732:13 *763:25 0.0437785
12 *732:19 *761:15 0.000984757
13 *732:19 *762:9 0.0246152
14 *732:19 *764:11 0.0220073
15 *803:cpu_mem_addr[6] *732:19 0.00478301
16 *804:io_in[3] *732:13 0.000737354
17 *79:8 *732:13 0.00145569
18 *729:29 *803:cpu_mem_addr[8] 0
19 *730:12 *732:11 0.00289637
20 *731:23 *732:13 0.0436816
*RES
1 *804:mem_addr[8] *732:11 35.4877 
2 *732:11 *732:13 539.875 
3 *732:13 *732:19 45.2785 
4 *732:19 *803:cpu_mem_addr[8] 118.455 
*END

*D_NET *733 0.164688
*CONN
*I *803:cpu_mem_en I *D memory_macro
*I *804:mem_en O *D picorv32_soc
*CAP
1 *803:cpu_mem_en 0.00290114
2 *804:mem_en 2.8932e-05
3 *733:16 0.00290114
4 *733:14 0.0387983
5 *733:12 0.0387983
6 *733:10 0.0163103
7 *733:8 0.0163393
8 *733:8 *804:mem_rdata[10] 4.98422e-05
9 *733:8 *804:mem_rdata[12] 4.98422e-05
10 *733:10 *764:13 0.0243345
11 *733:10 *765:13 0.0241759
12 *733:14 *734:9 0
*RES
1 *804:mem_en *733:8 6.90303 
2 *733:8 *733:10 104.769 
3 *733:10 *733:12 3.41 
4 *733:12 *733:14 116.255 
5 *733:14 *733:16 3.41 
6 *733:16 *803:cpu_mem_en 57.7411 
*END

*D_NET *734 0.147425
*CONN
*I *804:mem_rdata[0] I *D picorv32_soc
*I *803:cpu_mem_rdata[0] O *D memory_macro
*CAP
1 *804:mem_rdata[0] 2.8932e-05
2 *803:cpu_mem_rdata[0] 0.00322785
3 *734:13 0.0300513
4 *734:11 0.0300224
5 *734:9 0.0374674
6 *734:7 0.0374674
7 *734:5 0.00322785
8 *804:mem_rdata[0] *804:mem_rdata[10] 4.98422e-05
9 *804:mem_rdata[0] *804:mem_rdata[12] 4.98422e-05
10 *724:10 *734:13 0.0058318
11 *733:14 *734:9 0
*RES
1 *803:cpu_mem_rdata[0] *734:5 63.8125 
2 *734:5 *734:7 3.41 
3 *734:7 *734:9 109.048 
4 *734:9 *734:11 3.41 
5 *734:11 *734:13 103.704 
6 *734:13 *804:mem_rdata[0] 6.90303 
*END

*D_NET *735 0.212936
*CONN
*I *804:mem_rdata[10] I *D picorv32_soc
*I *803:cpu_mem_rdata[10] O *D memory_macro
*CAP
1 *804:mem_rdata[10] 0.00436947
2 *803:cpu_mem_rdata[10] 0.0063522
3 *735:30 0.0131938
4 *735:28 0.00887065
5 *735:26 0.00215774
6 *735:24 0.00846364
7 *804:mem_rdata[10] *804:mem_rdata[12] 0.00947417
8 *804:mem_rdata[10] *804:mem_rdata[1] 0.000377521
9 *804:mem_rdata[10] *804:mem_rdata[2] 0.00028372
10 *804:mem_rdata[10] *804:mem_rdata[3] 0.000136361
11 *804:mem_rdata[10] *804:mem_rdata[4] 0.000489726
12 *804:mem_rdata[10] *804:mem_rdata[5] 0.000266139
13 *804:mem_rdata[10] *804:mem_rdata[6] 0.000330613
14 *804:mem_rdata[10] *804:mem_rdata[9] 0.000612017
15 *804:mem_rdata[10] *741:21 0.00013948
16 *804:mem_rdata[10] *784:19 0.00395647
17 *804:mem_rdata[10] *786:14 0.00418916
18 *804:mem_rdata[10] *799:11 0.00178435
19 *804:mem_rdata[10] *799:19 0.00404634
20 *804:mem_rdata[10] *801:16 4.98422e-05
21 *735:24 *803:cpu_mem_wdata[10] 0.013026
22 *735:24 *803:cpu_mem_wdata[12] 0.0027943
23 *735:24 *803:cpu_mem_wdata[8] 0.00179169
24 *735:24 *803:cpu_mem_wdata[9] 0.00165076
25 *735:24 *736:24 6.58294e-06
26 *735:24 *770:29 9.45754e-05
27 *735:26 *736:26 0.00172222
28 *735:30 *736:26 0.0488143
29 *735:30 *795:13 0.0445335
30 *804:mem_rdata[0] *804:mem_rdata[10] 4.98422e-05
31 *68:11 *735:30 0.000781477
32 *724:8 *804:mem_rdata[10] 0.00017962
33 *726:11 *804:mem_rdata[10] 0.00156186
34 *726:19 *804:mem_rdata[10] 0.00120646
35 *727:16 *804:mem_rdata[10] 0.00205959
36 *730:12 *804:mem_rdata[10] 0.00172128
37 *730:14 *735:30 0.00896197
38 *731:21 *804:mem_rdata[10] 0.0123866
39 *733:8 *804:mem_rdata[10] 4.98422e-05
*RES
1 *803:cpu_mem_rdata[10] *735:24 47.9863 
2 *735:24 *735:26 56.8214 
3 *735:26 *735:28 0.946429 
4 *735:28 *735:30 600.357 
5 *735:30 *804:mem_rdata[10] 38.9367 
*END

*D_NET *736 0.215521
*CONN
*I *804:mem_rdata[11] I *D picorv32_soc
*I *803:cpu_mem_rdata[11] O *D memory_macro
*CAP
1 *804:mem_rdata[11] 0.00637084
2 *803:cpu_mem_rdata[11] 0.00294434
3 *736:26 0.0164446
4 *736:24 0.0130181
5 *804:mem_rdata[11] *804:mem_rdata[14] 0.00670633
6 *804:mem_rdata[11] *804:mem_rdata[8] 0.0165115
7 *804:mem_rdata[11] *742:9 0.00334543
8 *804:mem_rdata[11] *743:9 0.000111084
9 *804:mem_rdata[11] *766:9 0.00350888
10 *804:mem_rdata[11] *768:11 0
11 *804:mem_rdata[11] *770:11 0.000140897
12 *804:mem_rdata[11] *772:15 0.00173486
13 *804:mem_rdata[11] *772:17 0.00327215
14 *804:mem_rdata[11] *774:17 0.00360744
15 *804:mem_rdata[11] *794:11 0.000724391
16 *736:24 *803:cpu_mem_wdata[10] 0.0022944
17 *736:24 *803:cpu_mem_wdata[11] 0.00931769
18 *736:24 *803:cpu_mem_wdata[12] 0.00120613
19 *736:24 *803:cpu_mem_wdata[8] 0.00188679
20 *736:24 *803:cpu_mem_wdata[9] 0.00119323
21 *736:24 *737:26 0.00712874
22 *736:24 *738:21 0.000482435
23 *736:24 *770:29 0.00011159
24 *736:26 *738:23 0.0529671
25 *736:26 *795:13 0.000220982
26 *68:11 *736:26 0.000561931
27 *584:19 *736:24 0.000204436
28 *730:14 *736:26 0.00896197
29 *735:24 *736:24 6.58294e-06
30 *735:26 *736:26 0.00172222
31 *735:30 *736:26 0.0488143
*RES
1 *803:cpu_mem_rdata[11] *736:24 41.7604 
2 *736:24 *736:26 662.518 
3 *736:26 *804:mem_rdata[11] 46.1216 
*END

*D_NET *737 0.185457
*CONN
*I *804:mem_rdata[12] I *D picorv32_soc
*I *803:cpu_mem_rdata[12] O *D memory_macro
*CAP
1 *804:mem_rdata[12] 0.00479598
2 *803:cpu_mem_rdata[12] 0.00221196
3 *737:28 0.0153097
4 *737:26 0.0127257
5 *804:mem_rdata[12] *804:mem_rdata[1] 0.000377521
6 *804:mem_rdata[12] *804:mem_rdata[2] 0.00028372
7 *804:mem_rdata[12] *804:mem_rdata[3] 0.000136361
8 *804:mem_rdata[12] *804:mem_rdata[4] 0.000489726
9 *804:mem_rdata[12] *804:mem_rdata[5] 0.000266139
10 *804:mem_rdata[12] *804:mem_rdata[6] 0.000330613
11 *804:mem_rdata[12] *804:mem_rdata[9] 0.000612017
12 *804:mem_rdata[12] *741:21 0.0119403
13 *804:mem_rdata[12] *784:17 0.000168408
14 *804:mem_rdata[12] *786:14 0.000757739
15 *804:mem_rdata[12] *799:19 0.0016688
16 *804:mem_rdata[12] *801:16 4.98422e-05
17 *737:26 *803:cpu_mem_wdata[10] 0.00712951
18 *737:26 *803:cpu_mem_wdata[12] 0.00120613
19 *737:26 *803:cpu_mem_wdata[9] 0.00137419
20 *737:26 *738:21 0.000140922
21 *737:28 *739:15 0.0533481
22 *737:28 *763:25 0.0434531
23 *737:28 *797:13 0
24 *804:io_in[3] *737:28 0.000833731
25 *804:mem_rdata[0] *804:mem_rdata[12] 4.98422e-05
26 *804:mem_rdata[10] *804:mem_rdata[12] 0.00947417
27 *79:8 *737:28 0.00162837
28 *584:19 *737:26 0.000805081
29 *724:8 *804:mem_rdata[12] 0.00017962
30 *725:11 *804:mem_rdata[12] 0.00587377
31 *727:16 *804:mem_rdata[12] 0.000556264
32 *732:13 *737:28 0.000100678
33 *733:8 *804:mem_rdata[12] 4.98422e-05
34 *736:24 *737:26 0.00712874
*RES
1 *803:cpu_mem_rdata[12] *737:26 36.3242 
2 *737:26 *737:28 655.232 
3 *737:28 *804:mem_rdata[12] 41.5499 
*END

*D_NET *738 0.166054
*CONN
*I *804:mem_rdata[13] I *D picorv32_soc
*I *803:cpu_mem_rdata[13] O *D memory_macro
*CAP
1 *804:mem_rdata[13] 0.000436468
2 *803:cpu_mem_rdata[13] 0.00181789
3 *738:29 0.00458344
4 *738:23 0.0238827
5 *738:21 0.0201784
6 *738:15 0.0022606
7 *804:mem_rdata[13] *804:mem_rdata[19] 0
8 *738:15 *803:cpu_mem_wdata[8] 0.00175286
9 *738:15 *770:29 0.000627316
10 *738:21 *803:cpu_mem_wdata[8] 0.00136539
11 *738:21 *803:cpu_mem_wdata[9] 0.000439045
12 *738:21 *770:29 0.000445352
13 *738:23 *761:21 0
14 *738:23 *770:29 6.30931e-05
15 *738:23 *795:13 3.91324e-05
16 *738:29 *804:mem_rdata[15] 0.00479188
17 *738:29 *804:mem_rdata[17] 0.00571921
18 *738:29 *804:mem_rdata[8] 0.000252835
19 *738:29 *768:11 0.0102029
20 *738:29 *772:15 0.0078662
21 *738:29 *794:11 0.0154581
22 *61:17 *738:23 0.000154452
23 *137:11 *738:23 0.0100273
24 *529:28 *738:15 0
25 *584:19 *738:21 9.93074e-05
26 *736:24 *738:21 0.000482435
27 *736:26 *738:23 0.0529671
28 *737:26 *738:21 0.000140922
*RES
1 *803:cpu_mem_rdata[13] *738:15 49.7768 
2 *738:15 *738:21 9.029 
3 *738:21 *738:23 664.946 
4 *738:23 *738:29 43.9813 
5 *738:29 *804:mem_rdata[13] 6.74107 
*END

*D_NET *739 0.162146
*CONN
*I *804:mem_rdata[14] I *D picorv32_soc
*I *803:cpu_mem_rdata[14] O *D memory_macro
*CAP
1 *804:mem_rdata[14] 0.00652481
2 *803:cpu_mem_rdata[14] 0.000374325
3 *739:15 0.0269766
4 *739:13 0.0208262
5 *804:mem_rdata[14] *743:9 0.00322729
6 *804:mem_rdata[14] *744:9 0.00391619
7 *804:mem_rdata[14] *746:9 0.00442909
8 *804:mem_rdata[14] *754:35 0.000105305
9 *804:mem_rdata[14] *770:11 0.0231523
10 *804:mem_rdata[14] *772:15 6.08015e-05
11 *804:mem_rdata[14] *774:15 0.00273923
12 *804:mem_rdata[14] *776:17 0.00465405
13 *804:mem_rdata[14] *798:19 0.000289486
14 *739:13 *803:cpu_mem_wdata[9] 0.000243873
15 *739:13 *770:29 0.000745009
16 *739:15 *763:25 0.000196462
17 *739:15 *797:13 0
18 *804:io_in[3] *739:15 0.000770682
19 *804:mem_rdata[11] *804:mem_rdata[14] 0.00670633
20 *79:8 *739:15 0.00150523
21 *529:28 *739:13 0.00135428
22 *737:28 *739:15 0.0533481
*RES
1 *803:cpu_mem_rdata[14] *739:13 23.8393 
2 *739:13 *739:15 660.241 
3 *739:15 *804:mem_rdata[14] 47.7281 
*END

*D_NET *740 0.199311
*CONN
*I *804:mem_rdata[15] I *D picorv32_soc
*I *803:cpu_mem_rdata[15] O *D memory_macro
*CAP
1 *804:mem_rdata[15] 0.0195016
2 *803:cpu_mem_rdata[15] 2.90058e-05
3 *740:10 0.0540981
4 *740:8 0.0346254
5 *804:mem_rdata[15] *804:mem_rdata[17] 0.00188246
6 *804:mem_rdata[15] *804:mem_rdata[19] 0.000367892
7 *804:mem_rdata[15] *804:mem_rdata[7] 0.00319244
8 *804:mem_rdata[15] *804:mem_rdata[8] 0.0034469
9 *804:mem_rdata[15] *767:9 0.000888105
10 *804:mem_rdata[15] *768:11 0.00453395
11 *804:mem_rdata[15] *769:13 0.00062804
12 *804:mem_rdata[15] *771:7 0
13 *804:mem_rdata[15] *771:11 0.000732651
14 *804:mem_rdata[15] *772:15 0.00243439
15 *804:mem_rdata[15] *773:9 0.000836766
16 *804:mem_rdata[15] *775:9 0.00331662
17 *804:mem_rdata[15] *776:15 0.000305991
18 *804:mem_rdata[15] *777:17 0.0016215
19 *804:mem_rdata[15] *787:16 0.00130933
20 *804:mem_rdata[15] *788:23 0.0116529
21 *804:mem_rdata[15] *794:11 0.00303656
22 *804:mem_rdata[15] *795:11 0.00062804
23 *740:8 *770:29 5.27153e-05
24 *740:10 *741:13 0.0066107
25 *740:10 *767:13 0.00823135
26 *740:10 *768:15 0.00739605
27 *740:10 *769:15 0
28 *740:10 *770:13 0.00767701
29 *740:10 *801:18 0.0061431
30 *73:9 *740:10 0
31 *143:9 *740:10 0.00928932
32 *584:19 *740:8 4.98422e-05
33 *738:29 *804:mem_rdata[15] 0.00479188
*RES
1 *803:cpu_mem_rdata[15] *740:8 6.90303 
2 *740:8 *740:10 116.488 
3 *740:10 *804:mem_rdata[15] 21.1579 
*END

*D_NET *741 0.129294
*CONN
*I *804:mem_rdata[16] I *D picorv32_soc
*I *803:cpu_mem_rdata[16] O *D memory_macro
*CAP
1 *804:mem_rdata[16] 0.000121943
2 *803:cpu_mem_rdata[16] 0.00254204
3 *741:21 0.00711785
4 *741:13 0.0293418
5 *741:11 0.0242986
6 *741:5 0.00449481
7 *804:mem_rdata[16] *784:17 0.00108102
8 *804:mem_rdata[16] *799:19 0.00108102
9 *741:13 *767:13 0
10 *741:13 *771:13 0
11 *741:13 *793:13 0
12 *741:13 *794:13 0.0168192
13 *741:21 *804:mem_rdata[1] 0.000265473
14 *741:21 *804:mem_rdata[5] 0.00168806
15 *741:21 *804:mem_rdata[6] 0.000427752
16 *741:21 *804:mem_rdata[9] 0.00117857
17 *741:21 *759:17 0.00140024
18 *741:21 *770:11 0
19 *741:21 *784:17 0.00130593
20 *741:21 *801:16 0.0113319
21 *804:mem_rdata[10] *741:21 0.00013948
22 *804:mem_rdata[12] *741:21 0.0119403
23 *143:9 *741:13 0.00343673
24 *727:16 *804:mem_rdata[16] 0.000261211
25 *727:16 *741:21 0.0024095
26 *740:10 *741:13 0.0066107
*RES
1 *803:cpu_mem_rdata[16] *741:5 49.2411 
2 *741:5 *741:11 12.5603 
3 *741:11 *741:13 603.625 
4 *741:13 *741:21 49.6072 
5 *741:21 *804:mem_rdata[16] 8.4885 
*END

*D_NET *742 0.145879
*CONN
*I *804:mem_rdata[17] I *D picorv32_soc
*I *803:cpu_mem_rdata[17] O *D memory_macro
*CAP
1 *804:mem_rdata[17] 0.0024788
2 *803:cpu_mem_rdata[17] 0.0324624
3 *742:9 0.00600072
4 *742:7 0.00352192
5 *742:5 0.0324624
6 *804:mem_rdata[17] *804:mem_rdata[19] 0.00462101
7 *804:mem_rdata[17] *766:25 0.000452032
8 *804:mem_rdata[17] *768:11 0.00401208
9 *804:mem_rdata[17] *772:15 0.00127808
10 *804:mem_rdata[17] *776:15 0.000598983
11 *804:mem_rdata[17] *777:17 0.000856449
12 *742:9 *757:17 0.00183157
13 *742:9 *766:9 0.0138999
14 *742:9 *772:17 0.00314157
15 *742:9 *774:17 0.0246402
16 *804:mem_rdata[11] *742:9 0.00334543
17 *804:mem_rdata[15] *804:mem_rdata[17] 0.00188246
18 *109:9 *742:5 0.00267413
19 *738:29 *804:mem_rdata[17] 0.00571921
*RES
1 *803:cpu_mem_rdata[17] *742:5 661.089 
2 *742:5 *742:7 4.5 
3 *742:7 *742:9 233.411 
4 *742:9 *804:mem_rdata[17] 37.2752 
*END

*D_NET *743 0.158598
*CONN
*I *804:mem_rdata[18] I *D picorv32_soc
*I *803:cpu_mem_rdata[18] O *D memory_macro
*CAP
1 *804:mem_rdata[18] 0.00189709
2 *803:cpu_mem_rdata[18] 0.032404
3 *743:9 0.00616258
4 *743:7 0.00426549
5 *743:5 0.032404
6 *804:mem_rdata[18] *804:mem_rdata[20] 0.00494587
7 *804:mem_rdata[18] *804:mem_rdata[28] 0.000284274
8 *804:mem_rdata[18] *766:9 0.00020208
9 *804:mem_rdata[18] *772:15 0.000666629
10 *804:mem_rdata[18] *774:15 0.00649405
11 *743:9 *744:9 0.0317856
12 *743:9 *757:17 0.000162181
13 *743:9 *766:9 1.21258e-05
14 *743:9 *774:17 0.0300948
15 *804:mem_rdata[11] *743:9 0.000111084
16 *804:mem_rdata[14] *743:9 0.00322729
17 *108:9 *743:5 0.00347909
*RES
1 *803:cpu_mem_rdata[18] *743:5 660.482 
2 *743:5 *743:7 4.5 
3 *743:7 *743:9 301.179 
4 *743:9 *804:mem_rdata[18] 27.1266 
*END

*D_NET *744 0.165021
*CONN
*I *804:mem_rdata[19] I *D picorv32_soc
*I *803:cpu_mem_rdata[19] O *D memory_macro
*CAP
1 *804:mem_rdata[19] 0.00196201
2 *803:cpu_mem_rdata[19] 0.0323678
3 *744:9 0.00725658
4 *744:7 0.00529456
5 *744:5 0.0323678
6 *804:mem_rdata[19] *766:25 0.000868483
7 *804:mem_rdata[19] *769:9 0
8 *804:mem_rdata[19] *776:15 0.000596045
9 *804:mem_rdata[19] *777:17 0.00683236
10 *744:5 *784:23 0
11 *744:9 *757:17 0
12 *744:9 *766:9 0.000355344
13 *744:9 *776:17 0.0364296
14 *804:mem_rdata[13] *804:mem_rdata[19] 0
15 *804:mem_rdata[14] *744:9 0.00391619
16 *804:mem_rdata[15] *804:mem_rdata[19] 0.000367892
17 *804:mem_rdata[17] *804:mem_rdata[19] 0.00462101
18 *743:9 *744:9 0.0317856
*RES
1 *803:cpu_mem_rdata[19] *744:5 660.179 
2 *744:5 *744:7 4.5 
3 *744:7 *744:9 345.125 
4 *744:9 *804:mem_rdata[19] 34.2114 
*END

*D_NET *745 0.203409
*CONN
*I *804:mem_rdata[1] I *D picorv32_soc
*I *803:cpu_mem_rdata[1] O *D memory_macro
*CAP
1 *804:mem_rdata[1] 0.025892
2 *803:cpu_mem_rdata[1] 0.00222971
3 *745:10 0.0634456
4 *745:8 0.0397832
5 *804:mem_rdata[1] *804:mem_rdata[4] 0.00211857
6 *804:mem_rdata[1] *804:mem_rdata[5] 0.000309692
7 *804:mem_rdata[1] *804:mem_rdata[6] 0.000353701
8 *804:mem_rdata[1] *804:mem_rdata[9] 0.00108375
9 *804:mem_rdata[1] *756:22 0.0219104
10 *804:mem_rdata[1] *759:17 0.0100999
11 *804:mem_rdata[1] *801:16 0.000265473
12 *745:8 *803:cpu_mem_we[0] 0
13 *745:10 *788:25 0
14 *745:10 *798:23 0.0101492
15 *745:10 *799:27 0.00507247
16 wbs_dat_o[10] *745:10 0.000238685
17 *804:mem_rdata[10] *804:mem_rdata[1] 0.000377521
18 *804:mem_rdata[12] *804:mem_rdata[1] 0.000377521
19 *46:15 *745:10 0.000427556
20 *127:9 *745:10 0.00604728
21 *727:16 *804:mem_rdata[1] 0.0129614
22 *741:21 *804:mem_rdata[1] 0.000265473
*RES
1 *803:cpu_mem_rdata[1] *745:8 13.0287 
2 *745:8 *745:10 114.144 
3 *745:10 *804:mem_rdata[1] 19.3949 
*END

*D_NET *746 0.175672
*CONN
*I *804:mem_rdata[20] I *D picorv32_soc
*I *803:cpu_mem_rdata[20] O *D memory_macro
*CAP
1 *804:mem_rdata[20] 0.00210366
2 *803:cpu_mem_rdata[20] 0.0323152
3 *746:9 0.0075117
4 *746:7 0.00540804
5 *746:5 0.0323152
6 *804:mem_rdata[20] *804:mem_rdata[28] 0.000676476
7 *804:mem_rdata[20] *772:15 2.03842e-05
8 *804:mem_rdata[20] *776:15 0.00663505
9 *804:mem_rdata[20] *777:17 0
10 *746:5 *785:18 0
11 *746:9 *754:35 0.0403729
12 *746:9 *757:17 0
13 *746:9 *770:11 0.000212909
14 *746:9 *776:17 0.0387252
15 *804:mem_rdata[14] *746:9 0.00442909
16 *804:mem_rdata[18] *804:mem_rdata[20] 0.00494587
*RES
1 *803:cpu_mem_rdata[20] *746:5 659.571 
2 *746:5 *746:7 4.5 
3 *746:7 *746:9 382.5 
4 *746:9 *804:mem_rdata[20] 29.3958 
*END

*D_NET *747 0.191417
*CONN
*I *804:mem_rdata[21] I *D picorv32_soc
*I *803:cpu_mem_rdata[21] O *D memory_macro
*CAP
1 *804:mem_rdata[21] 0.000832651
2 *803:cpu_mem_rdata[21] 0.0223667
3 *747:19 0.00397936
4 *747:9 0.0113705
5 *747:7 0.00822377
6 *747:5 0.0223667
7 *804:mem_rdata[21] *804:mem_rdata[27] 0
8 *747:5 *754:31 0.000223071
9 *747:5 *758:13 0.0299227
10 *747:5 *781:13 0
11 *747:9 *748:19 0.0367348
12 *747:9 *767:9 0.00359828
13 *747:9 *777:9 0.0014858
14 *747:9 *793:9 0.0138071
15 *747:19 *804:mem_rdata[23] 0.00135936
16 *747:19 *804:mem_rdata[24] 0.00702389
17 *747:19 *769:13 0.00179857
18 *747:19 *782:9 0.0160341
19 *747:19 *787:16 0.00332302
20 *43:9 *747:19 0.00348398
21 *141:9 *747:5 0.00348238
*RES
1 *803:cpu_mem_rdata[21] *747:5 667.464 
2 *747:5 *747:7 4.5 
3 *747:7 *747:9 345.536 
4 *747:9 *747:19 39.9902 
5 *747:19 *804:mem_rdata[21] 14.6339 
*END

*D_NET *748 0.231784
*CONN
*I *804:mem_rdata[22] I *D picorv32_soc
*I *803:cpu_mem_rdata[22] O *D memory_macro
*CAP
1 *804:mem_rdata[22] 0.00352028
2 *803:cpu_mem_rdata[22] 0.000549208
3 *748:19 0.00955101
4 *748:17 0.00603072
5 *748:15 0.0179978
6 *748:13 0.018547
7 *804:mem_rdata[22] *804:mem_rdata[23] 0.0011866
8 *804:mem_rdata[22] *804:mem_rdata[25] 0.00104648
9 *804:mem_rdata[22] *804:mem_rdata[26] 0.00142683
10 *804:mem_rdata[22] *804:mem_rdata[27] 0.000768283
11 *804:mem_rdata[22] *804:mem_rdata[29] 0.000490359
12 *804:mem_rdata[22] *752:31 0.00037421
13 *804:mem_rdata[22] *753:31 0.000164351
14 *804:mem_rdata[22] *769:13 0.000960949
15 *804:mem_rdata[22] *771:11 0.00399216
16 *804:mem_rdata[22] *773:9 0.00122474
17 *804:mem_rdata[22] *775:9 0.000801073
18 *804:mem_rdata[22] *777:17 0.000936475
19 *804:mem_rdata[22] *788:23 0.00245922
20 *748:13 *803:cpu_mem_wdata[22] 0.000452321
21 *748:13 *750:11 0.00218324
22 *748:15 *749:15 0.0544195
23 *748:19 *749:19 0.0423108
24 *748:19 *767:9 0.00011307
25 *748:19 *771:11 0.00375638
26 *748:19 *773:9 0.000875888
27 *748:19 *775:9 0.000727305
28 *748:19 *777:9 0.000252779
29 *44:5 *804:mem_rdata[22] 0.000257567
30 *63:17 *748:15 0.00756089
31 *101:9 *748:15 0.00576699
32 *138:11 *748:15 0.00307126
33 *139:13 *748:15 0.00044159
34 *139:17 *748:15 0.000255816
35 *529:28 *748:13 0.000575815
36 *682:10 *748:15 0
37 *747:9 *748:19 0.0367348
*RES
1 *803:cpu_mem_rdata[22] *748:13 30.8214 
2 *748:13 *748:15 668.893 
3 *748:15 *748:17 4.5 
4 *748:17 *748:19 398.518 
5 *748:19 *804:mem_rdata[22] 41.8046 
*END

*D_NET *749 0.27701
*CONN
*I *804:mem_rdata[23] I *D picorv32_soc
*I *803:cpu_mem_rdata[23] O *D memory_macro
*CAP
1 *804:mem_rdata[23] 0.00297782
2 *803:cpu_mem_rdata[23] 0.000150061
3 *749:19 0.00855037
4 *749:17 0.00557255
5 *749:15 0.00866022
6 *749:13 0.00866022
7 *749:11 0.00164258
8 *749:9 0.00179264
9 *804:mem_rdata[23] *804:mem_rdata[24] 0.0092612
10 *804:mem_rdata[23] *804:mem_rdata[25] 0.00728452
11 *804:mem_rdata[23] *804:mem_rdata[31] 0
12 *804:mem_rdata[23] *769:9 0.000140908
13 *804:mem_rdata[23] *787:16 0.00147529
14 *749:11 *751:11 0.0054846
15 *749:11 *754:29 0.000308643
16 *749:15 *750:15 0.0544235
17 *749:15 *751:15 1.06328e-05
18 *749:19 *750:19 0.0439247
19 *749:19 *771:11 0.00430668
20 *749:19 *773:9 0.00100758
21 *749:19 *775:9 0.000948034
22 *804:mem_rdata[22] *804:mem_rdata[23] 0.0011866
23 *101:9 *749:15 0.00603199
24 *138:11 *749:15 0.00273759
25 *139:13 *749:15 0.000386782
26 *683:25 *749:11 0.00199461
27 *747:19 *804:mem_rdata[23] 0.00135936
28 *748:15 *749:15 0.0544195
29 *748:19 *749:19 0.0423108
*RES
1 *803:cpu_mem_rdata[23] *749:9 6.07143 
2 *749:9 *749:11 51.875 
3 *749:11 *749:13 4.5 
4 *749:13 *749:15 669.5 
5 *749:15 *749:17 4.5 
6 *749:17 *749:19 413.714 
7 *749:19 *804:mem_rdata[23] 45.9564 
*END

*D_NET *750 0.293153
*CONN
*I *804:mem_rdata[24] I *D picorv32_soc
*I *803:cpu_mem_rdata[24] O *D memory_macro
*CAP
1 *804:mem_rdata[24] 0.00259707
2 *803:cpu_mem_rdata[24] 0.000190537
3 *750:19 0.00855322
4 *750:17 0.00595615
5 *750:15 0.00861225
6 *750:13 0.00861225
7 *750:11 0.00196755
8 *750:9 0.00215808
9 *804:mem_rdata[24] *804:mem_rdata[25] 0.000643885
10 *804:mem_rdata[24] *782:9 0.00193639
11 *804:mem_rdata[24] *787:16 0.00214403
12 *750:11 *803:cpu_mem_wdata[22] 0.000166337
13 *750:11 *751:11 0.00877975
14 *750:15 *751:15 0.0543942
15 *750:19 *751:19 0.0461488
16 *750:19 *773:9 0.00633927
17 *804:mem_rdata[23] *804:mem_rdata[24] 0.0092612
18 *43:9 *804:mem_rdata[24] 0.00426088
19 *43:19 *804:mem_rdata[24] 0.000388662
20 *63:27 *750:15 0.000342673
21 *101:9 *750:15 0.00673833
22 *138:11 *750:15 0.00273759
23 *139:13 *750:15 0.000190945
24 *529:28 *750:11 0.000650335
25 *683:25 *750:11 0.0018274
26 *747:19 *804:mem_rdata[24] 0.00702389
27 *748:13 *750:11 0.00218324
28 *749:15 *750:15 0.0544235
29 *749:19 *750:19 0.0439247
*RES
1 *803:cpu_mem_rdata[24] *750:9 6.48214 
2 *750:9 *750:11 83.0893 
3 *750:11 *750:13 4.5 
4 *750:13 *750:15 668.589 
5 *750:15 *750:17 4.5 
6 *750:17 *750:19 434.661 
7 *750:19 *804:mem_rdata[24] 45.4564 
*END

*D_NET *751 0.276276
*CONN
*I *804:mem_rdata[25] I *D picorv32_soc
*I *803:cpu_mem_rdata[25] O *D memory_macro
*CAP
1 *804:mem_rdata[25] 0.00258601
2 *803:cpu_mem_rdata[25] 0.000178331
3 *751:19 0.00888711
4 *751:17 0.00630111
5 *751:15 0.0207065
6 *751:13 0.0207065
7 *751:11 0.00238491
8 *751:9 0.00256324
9 *804:mem_rdata[25] *804:mem_rdata[26] 0.00663183
10 *804:mem_rdata[25] *782:9 0.000117859
11 *804:mem_rdata[25] *783:9 0.000112964
12 *804:mem_rdata[25] *787:16 0.00104815
13 *751:11 *803:cpu_mem_wdata[22] 0.000182899
14 *751:19 *752:31 0.0468152
15 *751:19 *753:31 3.97677e-05
16 *751:19 *758:17 2.97829e-05
17 *751:19 *773:9 0.00632337
18 *804:mem_rdata[22] *804:mem_rdata[25] 0.00104648
19 *804:mem_rdata[23] *804:mem_rdata[25] 0.00728452
20 *804:mem_rdata[24] *804:mem_rdata[25] 0.000643885
21 *63:27 *751:15 0.000596709
22 *101:9 *751:15 0.0120205
23 *138:11 *751:15 0.00612467
24 *139:13 *751:15 0.000420283
25 *529:28 *751:11 0
26 *683:25 *751:11 0.00274072
27 *687:30 *751:11 0.00496448
28 *749:11 *751:11 0.0054846
29 *749:15 *751:15 1.06328e-05
30 *750:11 *751:11 0.00877975
31 *750:15 *751:15 0.0543942
32 *750:19 *751:19 0.0461488
*RES
1 *803:cpu_mem_rdata[25] *751:9 6.48214 
2 *751:9 *751:11 114.714 
3 *751:11 *751:13 4.5 
4 *751:13 *751:15 668.589 
5 *751:15 *751:17 4.5 
6 *751:17 *751:19 451.911 
7 *751:19 *804:mem_rdata[25] 41.9621 
*END

*D_NET *752 0.303991
*CONN
*I *804:mem_rdata[26] I *D picorv32_soc
*I *803:cpu_mem_rdata[26] O *D memory_macro
*CAP
1 *804:mem_rdata[26] 0.00227382
2 *803:cpu_mem_rdata[26] 0.00703563
3 *752:31 0.00867273
4 *752:29 0.00639891
5 *752:27 0.00872904
6 *752:25 0.0157647
7 *804:mem_rdata[26] *804:mem_rdata[27] 0.00520081
8 *804:mem_rdata[26] *783:9 0
9 *804:mem_rdata[26] *788:23 0.000848887
10 *752:25 *803:cpu_mem_wdata[22] 6.09509e-05
11 *752:25 *753:21 0.0179352
12 *752:27 *753:27 0.000549107
13 *752:27 *755:13 0.0534549
14 *752:27 *780:13 0.000464996
15 *752:27 *782:13 0.0533286
16 *752:31 *753:31 0.049518
17 *752:31 *775:9 0.00883559
18 *803:mem_rdata[8] *752:25 0.00445348
19 *804:mem_rdata[22] *804:mem_rdata[26] 0.00142683
20 *804:mem_rdata[22] *752:31 0.00037421
21 *804:mem_rdata[25] *804:mem_rdata[26] 0.00663183
22 *141:9 *752:27 0.00503226
23 *546:31 *752:25 9.2692e-05
24 *614:17 *752:25 9.2692e-05
25 *751:19 *752:31 0.0468152
*RES
1 *803:cpu_mem_rdata[26] *752:25 46.5682 
2 *752:25 *752:27 668.438 
3 *752:27 *752:29 4.5 
4 *752:29 *752:31 465.875 
5 *752:31 *804:mem_rdata[26] 38.3128 
*END

*D_NET *753 0.321215
*CONN
*I *804:mem_rdata[27] I *D picorv32_soc
*I *803:cpu_mem_rdata[27] O *D memory_macro
*CAP
1 *804:mem_rdata[27] 0.00207905
2 *803:cpu_mem_rdata[27] 0.00473408
3 *753:31 0.00876274
4 *753:29 0.00668369
5 *753:27 0.0086997
6 *753:25 0.00873256
7 *753:21 0.00476694
8 *804:mem_rdata[27] *804:mem_rdata[29] 0.00313066
9 *804:mem_rdata[27] *779:7 0
10 *804:mem_rdata[27] *788:23 0.00136274
11 *753:21 *803:cpu_mem_wdata[22] 6.42523e-05
12 *753:21 *754:19 0.000152101
13 *753:21 *754:29 0.0210152
14 *753:27 *754:31 0.000408761
15 *753:27 *781:13 0.0535859
16 *753:27 *782:13 0.0533067
17 *753:31 *755:17 0.0518742
18 *753:31 *758:17 5.96516e-05
19 *753:31 *775:9 0.00863224
20 *753:31 *777:17 0.000117122
21 *803:mem_rdata[8] *753:21 0.00347927
22 *804:mem_rdata[21] *804:mem_rdata[27] 0
23 *804:mem_rdata[22] *804:mem_rdata[27] 0.000768283
24 *804:mem_rdata[22] *753:31 0.000164351
25 *804:mem_rdata[26] *804:mem_rdata[27] 0.00520081
26 *141:9 *753:27 0.00520604
27 *546:31 *753:21 9.2692e-05
28 *614:17 *753:21 9.2692e-05
29 *751:19 *753:31 3.97677e-05
30 *752:25 *753:21 0.0179352
31 *752:27 *753:27 0.000549107
32 *752:31 *753:31 0.049518
*RES
1 *803:cpu_mem_rdata[27] *753:21 47.7423 
2 *753:21 *753:25 3.94571 
3 *753:25 *753:27 668.134 
4 *753:27 *753:29 4.5 
5 *753:29 *753:31 489.286 
6 *753:31 *804:mem_rdata[27] 35.1681 
*END

*D_NET *754 0.2905
*CONN
*I *804:mem_rdata[28] I *D picorv32_soc
*I *803:cpu_mem_rdata[28] O *D memory_macro
*CAP
1 *804:mem_rdata[28] 0.00384669
2 *803:cpu_mem_rdata[28] 0.00217247
3 *754:35 0.016929
4 *754:33 0.0130823
5 *754:31 0.00865895
6 *754:29 0.0125457
7 *754:19 0.00605924
8 *804:mem_rdata[28] *804:mem_rdata[30] 0.0123865
9 *804:mem_rdata[28] *774:15 0.00173419
10 *804:mem_rdata[28] *777:17 0
11 *804:mem_rdata[28] *798:19 0.000366807
12 *754:29 *803:cpu_mem_wdata[22] 0.000830327
13 *754:31 *758:13 0.0530086
14 *754:31 *781:13 0.0530688
15 *754:35 *757:17 0
16 *754:35 *766:9 0
17 *754:35 *770:11 0.00591881
18 *754:35 *776:17 2.38501e-05
19 *754:35 *792:9 0.0121876
20 *754:35 *798:11 0
21 *754:35 *798:19 0.000112662
22 *803:mem_rdata[8] *754:29 0.00294417
23 *804:io_in[22] *804:mem_rdata[28] 0.00214958
24 *804:mem_rdata[14] *754:35 0.000105305
25 *804:mem_rdata[18] *804:mem_rdata[28] 0.000284274
26 *804:mem_rdata[20] *804:mem_rdata[28] 0.000676476
27 *141:9 *754:31 0.00337986
28 *614:17 *754:19 0.00125734
29 *683:25 *754:19 0.00257545
30 *683:25 *754:29 0.0105628
31 *685:18 *754:19 0
32 *687:30 *754:19 0.00115143
33 *746:9 *754:35 0.0403729
34 *747:5 *754:31 0.000223071
35 *749:11 *754:29 0.000308643
36 *753:21 *754:19 0.000152101
37 *753:21 *754:29 0.0210152
38 *753:27 *754:31 0.000408761
*RES
1 *803:cpu_mem_rdata[28] *754:19 19.992 
2 *754:19 *754:29 36.9099 
3 *754:29 *754:31 661.759 
4 *754:31 *754:33 4.5 
5 *754:33 *754:35 436.714 
6 *754:35 *804:mem_rdata[28] 35.6413 
*END

*D_NET *755 0.322721
*CONN
*I *804:mem_rdata[29] I *D picorv32_soc
*I *803:cpu_mem_rdata[29] O *D memory_macro
*CAP
1 *804:mem_rdata[29] 0.00260331
2 *803:cpu_mem_rdata[29] 0.000529518
3 *755:17 0.00888018
4 *755:15 0.00627687
5 *755:13 0.00833981
6 *755:11 0.00833981
7 *755:9 0.00830387
8 *755:7 0.00883339
9 *804:mem_rdata[29] *804:mem_rdata[31] 0.00619528
10 *804:mem_rdata[29] *777:17 0.000780516
11 *804:mem_rdata[29] *779:7 6.12069e-05
12 *804:mem_rdata[29] *788:23 0.00179364
13 *755:9 *757:9 0.0269002
14 *755:9 *790:17 0.00547536
15 *755:13 *780:13 0.0534531
16 *755:17 *804:mem_rdata[7] 0.00340252
17 *755:17 *758:17 0.0521282
18 *755:17 *775:9 0.00290583
19 *755:17 *777:17 0.00328222
20 *804:mem_rdata[22] *804:mem_rdata[29] 0.000490359
21 *804:mem_rdata[27] *804:mem_rdata[29] 0.00313066
22 *33:9 *755:13 0.00249808
23 *44:5 *804:mem_rdata[29] 0
24 *141:9 *755:13 0.00278803
25 *752:27 *755:13 0.0534549
26 *753:31 *755:17 0.0518742
*RES
1 *803:cpu_mem_rdata[29] *755:7 13.8214 
2 *755:7 *755:9 253.125 
3 *755:9 *755:11 4.5 
4 *755:11 *755:13 656.143 
5 *755:13 *755:15 4.5 
6 *755:15 *755:17 490.518 
7 *755:17 *804:mem_rdata[29] 36.0699 
*END

*D_NET *756 0.222685
*CONN
*I *804:mem_rdata[2] I *D picorv32_soc
*I *803:cpu_mem_rdata[2] O *D memory_macro
*CAP
1 *804:mem_rdata[2] 0.000594473
2 *803:cpu_mem_rdata[2] 0.00908288
3 *756:22 0.0172188
4 *756:20 0.0166243
5 *756:18 0.0130044
6 *756:16 0.0220873
7 *756:16 *803:cpu_mem_wdata[2] 2.81967e-05
8 *756:18 *800:13 0.0424747
9 *756:22 *804:mem_rdata[4] 0.00371229
10 *756:22 *804:mem_rdata[9] 0.00103646
11 *756:22 *759:17 0.0512372
12 *804:mem_rdata[10] *804:mem_rdata[2] 0.00028372
13 *804:mem_rdata[12] *804:mem_rdata[2] 0.00028372
14 *804:mem_rdata[1] *756:22 0.0219104
15 *97:8 *756:18 0.000960808
16 *126:11 *756:18 0.0135377
17 *546:19 *756:16 6.63171e-06
18 *725:23 *756:18 0
19 *727:18 *756:18 0.00860104
*RES
1 *803:cpu_mem_rdata[2] *756:16 39.4273 
2 *756:16 *756:18 520.446 
3 *756:18 *756:20 3.41 
4 *756:20 *756:22 82.6714 
5 *756:22 *804:mem_rdata[2] 11.6792 
*END

*D_NET *757 0.276387
*CONN
*I *804:mem_rdata[30] I *D picorv32_soc
*I *803:cpu_mem_rdata[30] O *D memory_macro
*CAP
1 *804:mem_rdata[30] 0.00328531
2 *803:cpu_mem_rdata[30] 0.000504528
3 *757:17 0.0207039
4 *757:15 0.0174186
5 *757:13 0.0201181
6 *757:11 0.0201181
7 *757:9 0.00435198
8 *757:7 0.00485651
9 *804:mem_rdata[30] *773:7 0.000120003
10 *804:mem_rdata[30] *798:19 0.0145487
11 *757:9 *758:9 0.0299698
12 *757:9 *790:17 0.000458692
13 *757:13 *780:13 0.0532033
14 *757:17 *804:mem_rdata[8] 0.00324488
15 *757:17 *758:17 0
16 *757:17 *766:9 0.00529336
17 *757:17 *772:15 0.00114821
18 *757:17 *772:17 0.0178063
19 *757:17 *774:17 0.000436838
20 *757:17 *776:15 0.000559265
21 *757:17 *776:17 0
22 *757:17 *794:11 0.000233689
23 *804:io_in[22] *804:mem_rdata[30] 0.000476831
24 *804:mem_rdata[28] *804:mem_rdata[30] 0.0123865
25 *33:9 *757:13 0.00432886
26 *141:9 *757:13 0.00575941
27 *685:18 *757:9 0.00616154
28 *742:9 *757:17 0.00183157
29 *743:9 *757:17 0.000162181
30 *744:9 *757:17 0
31 *746:9 *757:17 0
32 *754:35 *757:17 0
33 *755:9 *757:9 0.0269002
*RES
1 *803:cpu_mem_rdata[30] *757:7 13.5179 
2 *757:7 *757:9 285.161 
3 *757:9 *757:11 4.5 
4 *757:11 *757:13 653.107 
5 *757:13 *757:15 4.5 
6 *757:15 *757:17 440.411 
7 *757:17 *804:mem_rdata[30] 40.376 
*END

*D_NET *758 0.291056
*CONN
*I *804:mem_rdata[31] I *D picorv32_soc
*I *803:cpu_mem_rdata[31] O *D memory_macro
*CAP
1 *804:mem_rdata[31] 0.00239491
2 *803:cpu_mem_rdata[31] 0.00046685
3 *758:17 0.0196617
4 *758:15 0.0172667
5 *758:13 0.00996424
6 *758:11 0.00996424
7 *758:9 0.0108522
8 *758:7 0.011319
9 *804:mem_rdata[31] *777:17 0.00039888
10 *804:mem_rdata[31] *781:7 4.83274e-05
11 *804:mem_rdata[31] *788:23 0.00163124
12 *758:9 *790:17 0.000989234
13 *758:13 *781:13 0.000260127
14 *758:17 *804:mem_rdata[7] 0.0031476
15 *758:17 *775:9 0.00297744
16 *758:17 *777:17 0.00443235
17 *804:mem_rdata[23] *804:mem_rdata[31] 0
18 *804:mem_rdata[29] *804:mem_rdata[31] 0.00619528
19 *43:19 *804:mem_rdata[31] 0.00769219
20 *141:9 *758:13 0.00345201
21 *685:18 *758:9 0.0128227
22 *747:5 *758:13 0.0299227
23 *751:19 *758:17 2.97829e-05
24 *753:31 *758:17 5.96516e-05
25 *754:31 *758:13 0.0530086
26 *755:17 *758:17 0.0521282
27 *757:9 *758:9 0.0299698
28 *757:17 *758:17 0
*RES
1 *803:cpu_mem_rdata[31] *758:7 13.2143 
2 *758:7 *758:9 313.089 
3 *758:9 *758:11 4.5 
4 *758:11 *758:13 656.446 
5 *758:13 *758:15 4.5 
6 *758:15 *758:17 511.054 
7 *758:17 *804:mem_rdata[31] 35.4474 
*END

*D_NET *759 0.216786
*CONN
*I *804:mem_rdata[3] I *D picorv32_soc
*I *803:cpu_mem_rdata[3] O *D memory_macro
*CAP
1 *804:mem_rdata[3] 0.000533299
2 *803:cpu_mem_rdata[3] 0.00586312
3 *759:17 0.0150948
4 *759:15 0.0145615
5 *759:13 0.00817795
6 *759:11 0.0119436
7 *759:5 0.00962872
8 *759:13 *791:13 0.0431953
9 *759:13 *799:27 0.0241218
10 *759:17 *804:mem_rdata[9] 0.00955624
11 *759:17 *784:17 0
12 *759:17 *786:12 0
13 *759:17 *787:16 0
14 *759:17 *799:19 0
15 *759:17 *799:25 0
16 *804:io_in[15] *759:17 0
17 *804:mem_rdata[10] *804:mem_rdata[3] 0.000136361
18 *804:mem_rdata[12] *804:mem_rdata[3] 0.000136361
19 *804:mem_rdata[1] *759:17 0.0100999
20 *112:8 *759:17 0
21 *126:17 *759:17 1.90461e-05
22 *127:9 *759:13 0.00341093
23 *129:25 *759:17 0.000577834
24 *727:16 *804:mem_rdata[3] 1.35877e-05
25 *727:24 *759:11 0.00707786
26 *741:21 *759:17 0.00140024
27 *756:22 *759:17 0.0512372
*RES
1 *803:cpu_mem_rdata[3] *759:5 119.062 
2 *759:5 *759:11 21.8569 
3 *759:11 *759:13 530.768 
4 *759:13 *759:15 3.41 
5 *759:15 *759:17 80.9418 
6 *759:17 *804:mem_rdata[3] 11.3564 
*END

*D_NET *760 0.234998
*CONN
*I *804:mem_rdata[4] I *D picorv32_soc
*I *803:cpu_mem_rdata[4] O *D memory_macro
*CAP
1 *804:mem_rdata[4] 0.00542641
2 *803:cpu_mem_rdata[4] 0.00585504
3 *760:21 0.0123094
4 *760:19 0.00688303
5 *760:17 0.00383738
6 *760:15 0.00740977
7 *760:5 0.00942743
8 *804:mem_rdata[4] *804:mem_rdata[6] 0.000466651
9 *804:mem_rdata[4] *804:mem_rdata[9] 0.00203367
10 *804:mem_rdata[4] *786:14 0.000113332
11 *804:mem_rdata[4] *799:11 0.0001051
12 *804:mem_rdata[4] *801:16 0
13 *760:15 *762:9 0.00350538
14 *760:17 *792:17 0.0271741
15 *760:21 *762:13 0.0429673
16 *803:cpu_mem_addr[6] *760:15 0.00118106
17 *803:cpu_mem_addr[7] *760:15 0.000150238
18 *804:mem_rdata[10] *804:mem_rdata[4] 0.000489726
19 *804:mem_rdata[12] *804:mem_rdata[4] 0.000489726
20 *804:mem_rdata[1] *804:mem_rdata[4] 0.00211857
21 *67:9 *760:21 0.000897601
22 *68:11 *760:21 0.000696188
23 *69:9 *760:21 0.000630425
24 *70:9 *760:21 0.00203329
25 *728:19 *760:17 0.029004
26 *728:45 *760:15 0.00294985
27 *729:15 *760:21 0.0429673
28 *729:29 *760:15 0.0105434
29 *730:14 *760:21 0.00324997
30 *731:27 *760:17 0.0063707
31 *756:22 *804:mem_rdata[4] 0.00371229
*RES
1 *803:cpu_mem_rdata[4] *760:5 118.455 
2 *760:5 *760:15 35.3014 
3 *760:15 *760:17 273.661 
4 *760:17 *760:19 4.5 
5 *760:19 *760:21 528.188 
6 *760:21 *804:mem_rdata[4] 33.3675 
*END

*D_NET *761 0.207655
*CONN
*I *804:mem_rdata[5] I *D picorv32_soc
*I *803:cpu_mem_rdata[5] O *D memory_macro
*CAP
1 *804:mem_rdata[5] 0.0027693
2 *803:cpu_mem_rdata[5] 0.00580376
3 *761:21 0.0190527
4 *761:19 0.0162834
5 *761:17 0.00320948
6 *761:15 0.00608423
7 *761:5 0.00867851
8 *804:mem_rdata[5] *804:mem_rdata[6] 0.0129796
9 *804:mem_rdata[5] *801:16 0.00994965
10 *761:15 *762:9 0.000162413
11 *761:15 *764:5 2.69575e-05
12 *761:15 *764:11 0.000121515
13 *761:15 *793:27 0.0141551
14 *761:17 *762:9 0.00575538
15 *761:17 *793:17 0.017972
16 *803:cpu_mem_addr[6] *761:15 0.00239567
17 *804:mem_rdata[10] *804:mem_rdata[5] 0.000266139
18 *804:mem_rdata[12] *804:mem_rdata[5] 0.000266139
19 *804:mem_rdata[1] *804:mem_rdata[5] 0.000309692
20 *61:17 *761:21 0
21 *137:11 *761:21 0
22 *727:16 *804:mem_rdata[5] 0.000114284
23 *729:19 *761:17 0.0216428
24 *729:29 *761:15 0.0136108
25 *731:23 *761:21 0.0433519
26 *732:13 *761:21 2.11068e-05
27 *732:19 *761:15 0.000984757
28 *738:23 *761:21 0
29 *741:21 *804:mem_rdata[5] 0.00168806
*RES
1 *803:cpu_mem_rdata[5] *761:5 117.241 
2 *761:5 *761:15 38.5597 
3 *761:15 *761:17 203.429 
4 *761:17 *761:19 4.5 
5 *761:19 *761:21 532.134 
6 *761:21 *804:mem_rdata[5] 35.0689 
*END

*D_NET *762 0.224419
*CONN
*I *804:mem_rdata[6] I *D picorv32_soc
*I *803:cpu_mem_rdata[6] O *D memory_macro
*CAP
1 *804:mem_rdata[6] 0.0033391
2 *803:cpu_mem_rdata[6] 0.00592372
3 *762:13 0.0199552
4 *762:11 0.0166161
5 *762:9 0.00585845
6 *762:7 0.00585845
7 *762:5 0.00592372
8 *804:mem_rdata[6] *804:mem_rdata[9] 0.012802
9 *804:mem_rdata[6] *801:16 0.000349382
10 *762:9 *763:19 0.000356018
11 *762:9 *792:33 2.83562e-06
12 *762:9 *793:17 0.00762412
13 *762:9 *794:17 0.0324145
14 *762:13 *796:13 0
15 *803:cpu_mem_addr[6] *762:9 0.00389145
16 *804:mem_rdata[10] *804:mem_rdata[6] 0.000330613
17 *804:mem_rdata[12] *804:mem_rdata[6] 0.000330613
18 *804:mem_rdata[1] *804:mem_rdata[6] 0.000353701
19 *804:mem_rdata[4] *804:mem_rdata[6] 0.000466651
20 *804:mem_rdata[5] *804:mem_rdata[6] 0.0129796
21 *67:9 *762:13 0.000971251
22 *68:11 *762:13 0.000787699
23 *69:9 *762:13 0.000566676
24 *70:9 *762:13 0.00233285
25 *727:16 *804:mem_rdata[6] 0.000398459
26 *728:45 *762:9 0.000678654
27 *729:15 *762:13 0.00012698
28 *729:29 *762:9 0.00249432
29 *730:14 *762:13 0.00325209
30 *732:19 *762:9 0.0246152
31 *741:21 *804:mem_rdata[6] 0.000427752
32 *760:15 *762:9 0.00350538
33 *760:21 *762:13 0.0429673
34 *761:15 *762:9 0.000162413
35 *761:17 *762:9 0.00575538
*RES
1 *803:cpu_mem_rdata[6] *762:5 119.062 
2 *762:5 *762:7 3.41 
3 *762:7 *762:9 53.5205 
4 *762:9 *762:11 3.41 
5 *762:11 *762:13 531.982 
6 *762:13 *804:mem_rdata[6] 38.2022 
*END

*D_NET *763 0.208516
*CONN
*I *804:mem_rdata[7] I *D picorv32_soc
*I *803:cpu_mem_rdata[7] O *D memory_macro
*CAP
1 *804:mem_rdata[7] 0.00294473
2 *803:cpu_mem_rdata[7] 0.00589806
3 *763:25 0.0101296
4 *763:23 0.0132959
5 *763:19 0.00752236
6 *763:5 0.00730941
7 *804:mem_rdata[7] *768:11 0.0160128
8 *804:mem_rdata[7] *775:9 0.0160128
9 *763:19 *792:33 2.51214e-05
10 *763:25 *797:13 0
11 *803:cpu_mem_addr[6] *763:19 0.000159502
12 *803:cpu_mem_addr[6] *763:23 0.00181436
13 *804:io_in[3] *763:25 0.000745318
14 *804:mem_rdata[15] *804:mem_rdata[7] 0.00319244
15 *79:8 *763:25 0.00145569
16 *79:10 *763:23 7.13706e-06
17 *540:37 *763:23 0.000105638
18 *540:44 *763:23 0.0100398
19 *729:29 *763:19 0.000356018
20 *731:27 *763:19 0.00341667
21 *731:27 *763:23 0.0137387
22 *732:13 *763:25 0.0437785
23 *737:28 *763:25 0.0434531
24 *739:15 *763:25 0.000196462
25 *755:17 *804:mem_rdata[7] 0.00340252
26 *758:17 *804:mem_rdata[7] 0.0031476
27 *762:9 *763:19 0.000356018
*RES
1 *803:cpu_mem_rdata[7] *763:5 118.455 
2 *763:5 *763:19 18.8325 
3 *763:19 *763:23 41.4722 
4 *763:23 *763:25 543.518 
5 *763:25 *804:mem_rdata[7] 40.3646 
*END

*D_NET *764 0.17922
*CONN
*I *804:mem_rdata[8] I *D picorv32_soc
*I *803:cpu_mem_rdata[8] O *D memory_macro
*CAP
1 *804:mem_rdata[8] 0.00317146
2 *803:cpu_mem_rdata[8] 0.00586044
3 *764:13 0.024945
4 *764:11 0.0252335
5 *764:5 0.0093204
6 *804:mem_rdata[8] *772:15 0.00234593
7 *804:mem_rdata[8] *794:11 0.014068
8 *764:11 *765:11 0.0181512
9 *764:11 *793:27 0.00189471
10 *803:cpu_mem_addr[6] *764:11 0.00428257
11 *804:io_in[3] *764:13 0
12 *804:mem_rdata[11] *804:mem_rdata[8] 0.0165115
13 *804:mem_rdata[15] *804:mem_rdata[8] 0.0034469
14 *79:8 *764:13 0
15 *732:19 *764:11 0.0220073
16 *733:10 *764:13 0.0243345
17 *738:29 *804:mem_rdata[8] 0.000252835
18 *757:17 *804:mem_rdata[8] 0.00324488
19 *761:15 *764:5 2.69575e-05
20 *761:15 *764:11 0.000121515
*RES
1 *803:cpu_mem_rdata[8] *764:5 117.848 
2 *764:5 *764:11 41.2068 
3 *764:11 *764:13 95.5009 
4 *764:13 *804:mem_rdata[8] 38.6621 
*END

*D_NET *765 0.151942
*CONN
*I *804:mem_rdata[9] I *D picorv32_soc
*I *803:cpu_mem_rdata[9] O *D memory_macro
*CAP
1 *804:mem_rdata[9] 0.00363369
2 *803:cpu_mem_rdata[9] 0.00583245
3 *765:13 0.0247016
4 *765:11 0.0270177
5 *765:5 0.0117823
6 *804:mem_rdata[9] *786:14 0.000267313
7 *765:11 *793:27 0.00049672
8 *803:cpu_mem_addr[6] *765:11 0.00683105
9 *804:mem_rdata[10] *804:mem_rdata[9] 0.000612017
10 *804:mem_rdata[12] *804:mem_rdata[9] 0.000612017
11 *804:mem_rdata[1] *804:mem_rdata[9] 0.00108375
12 *804:mem_rdata[4] *804:mem_rdata[9] 0.00203367
13 *804:mem_rdata[6] *804:mem_rdata[9] 0.012802
14 *724:10 *765:13 0
15 *727:16 *804:mem_rdata[9] 0.000137138
16 *733:10 *765:13 0.0241759
17 *741:21 *804:mem_rdata[9] 0.00117857
18 *756:22 *804:mem_rdata[9] 0.00103646
19 *759:17 *804:mem_rdata[9] 0.00955624
20 *764:11 *765:11 0.0181512
*RES
1 *803:cpu_mem_rdata[9] *765:5 117.241 
2 *765:5 *765:11 35.1532 
3 *765:11 *765:13 93.5833 
4 *765:13 *804:mem_rdata[9] 41.9481 
*END

*D_NET *766 0.215079
*CONN
*I *803:cpu_mem_wdata[0] I *D memory_macro
*I *804:mem_wdata[0] O *D picorv32_soc
*CAP
1 *803:cpu_mem_wdata[0] 3.93512e-05
2 *804:mem_wdata[0] 0.000341199
3 *766:27 0.0328592
4 *766:25 0.064005
5 *766:9 0.0348594
6 *766:7 0.00401548
7 *766:9 *772:17 0.0119073
8 *766:9 *774:17 0.0020686
9 *766:9 *776:15 0.000233711
10 *766:9 *776:17 6.5298e-05
11 *766:25 *772:15 5.11566e-05
12 *766:25 *775:9 0.000184502
13 *766:25 *777:17 0.00524898
14 *766:25 *788:23 0.0226754
15 *804:mem_rdata[11] *766:9 0.00350888
16 *804:mem_rdata[17] *766:25 0.000452032
17 *804:mem_rdata[18] *766:9 0.00020208
18 *804:mem_rdata[19] *766:25 0.000868483
19 *43:19 *766:25 0.00226707
20 *49:15 *766:27 0.001305
21 *56:15 *766:27 0
22 *91:9 *766:27 0.00836002
23 *742:9 *766:9 0.0138999
24 *743:9 *766:9 1.21258e-05
25 *744:9 *766:9 0.000355344
26 *754:35 *766:9 0
27 *757:17 *766:9 0.00529336
*RES
1 *804:mem_wdata[0] *766:7 9.57143 
2 *766:7 *766:9 205.071 
3 *766:9 *766:25 21.8686 
4 *766:25 *766:27 116.488 
5 *766:27 *803:cpu_mem_wdata[0] 6.90303 
*END

*D_NET *767 0.200571
*CONN
*I *803:cpu_mem_wdata[10] I *D memory_macro
*I *804:mem_wdata[10] O *D picorv32_soc
*CAP
1 *803:cpu_mem_wdata[10] 0.00363754
2 *804:mem_wdata[10] 0.00445539
3 *767:13 0.0247213
4 *767:11 0.0210837
5 *767:9 0.00445539
6 *803:cpu_mem_wdata[10] *803:cpu_mem_wdata[11] 0.000705906
7 *803:cpu_mem_wdata[10] *803:cpu_mem_wdata[12] 0.00159521
8 *803:cpu_mem_wdata[10] *803:cpu_mem_wdata[8] 0.00189757
9 *803:cpu_mem_wdata[10] *803:cpu_mem_wdata[9] 0.00163082
10 *803:cpu_mem_wdata[10] *770:29 7.55918e-05
11 *767:9 *769:13 0.00247201
12 *767:9 *771:11 0.0217398
13 *767:9 *773:9 0.000359571
14 *767:9 *782:9 0
15 *767:9 *788:23 0.0020893
16 *767:9 *793:9 0.0031162
17 *767:9 *795:11 0.0172969
18 *767:13 *768:15 0.000232453
19 *767:13 *770:13 0.0536908
20 *804:mem_rdata[15] *767:9 0.000888105
21 *584:19 *803:cpu_mem_wdata[10] 3.46553e-05
22 *735:24 *803:cpu_mem_wdata[10] 0.013026
23 *736:24 *803:cpu_mem_wdata[10] 0.0022944
24 *737:26 *803:cpu_mem_wdata[10] 0.00712951
25 *740:10 *767:13 0.00823135
26 *741:13 *767:13 0
27 *747:9 *767:9 0.00359828
28 *748:19 *767:9 0.00011307
*RES
1 *804:mem_wdata[10] *767:9 49.4004 
2 *767:9 *767:11 3.41 
3 *767:11 *767:13 669.196 
4 *767:13 *803:cpu_mem_wdata[10] 40.5929 
*END

*D_NET *768 0.205125
*CONN
*I *803:cpu_mem_wdata[11] I *D memory_macro
*I *804:mem_wdata[11] O *D picorv32_soc
*CAP
1 *803:cpu_mem_wdata[11] 0.00294619
2 *804:mem_wdata[11] 0.00503243
3 *768:15 0.0139452
4 *768:13 0.010999
5 *768:11 0.00503243
6 *803:cpu_mem_wdata[11] *803:cpu_mem_wdata[12] 0.00138828
7 *803:cpu_mem_wdata[11] *803:cpu_mem_wdata[8] 0.00583903
8 *803:cpu_mem_wdata[11] *803:cpu_mem_wdata[9] 0.00128474
9 *803:cpu_mem_wdata[11] *770:29 0.000325255
10 *768:11 *770:11 0
11 *768:11 *774:15 6.30078e-05
12 *768:11 *775:9 0.0014978
13 *768:11 *777:17 0.00476537
14 *768:11 *794:11 0.00028208
15 *768:15 *770:13 0.0536908
16 *768:15 *786:18 0
17 *768:15 *801:18 0.0443889
18 *803:cpu_mem_wdata[10] *803:cpu_mem_wdata[11] 0.000705906
19 *804:mem_rdata[11] *768:11 0
20 *804:mem_rdata[15] *768:11 0.00453395
21 *804:mem_rdata[17] *768:11 0.00401208
22 *804:mem_rdata[7] *768:11 0.0160128
23 *73:9 *768:15 0.000545409
24 *584:19 *803:cpu_mem_wdata[11] 0.000685154
25 *736:24 *803:cpu_mem_wdata[11] 0.00931769
26 *738:29 *768:11 0.0102029
27 *740:10 *768:15 0.00739605
28 *767:13 *768:15 0.000232453
*RES
1 *804:mem_wdata[11] *768:11 48.7021 
2 *768:11 *768:13 3.41 
3 *768:13 *768:15 666.768 
4 *768:15 *803:cpu_mem_wdata[11] 34.1163 
*END

*D_NET *769 0.196411
*CONN
*I *803:cpu_mem_wdata[12] I *D memory_macro
*I *804:mem_wdata[12] O *D picorv32_soc
*CAP
1 *803:cpu_mem_wdata[12] 0.00601607
2 *804:mem_wdata[12] 0.000802268
3 *769:15 0.0393717
4 *769:13 0.0393195
5 *769:9 0.00676607
6 *803:cpu_mem_wdata[12] *803:cpu_mem_wdata[9] 0.00063716
7 *769:13 *771:11 0.000168615
8 *769:13 *782:9 0.00333282
9 *769:13 *788:23 0.00208487
10 *769:13 *795:11 0.0172934
11 *769:15 *771:13 0.0111241
12 *769:15 *792:13 0.00948413
13 *769:15 *793:13 0.01026
14 *769:15 *794:13 0.00866991
15 *769:15 *796:13 0.0131768
16 *803:cpu_mem_wdata[10] *803:cpu_mem_wdata[12] 0.00159521
17 *803:cpu_mem_wdata[11] *803:cpu_mem_wdata[12] 0.00138828
18 *804:mem_rdata[15] *769:13 0.00062804
19 *804:mem_rdata[19] *769:9 0
20 *804:mem_rdata[22] *769:13 0.000960949
21 *804:mem_rdata[23] *769:9 0.000140908
22 *67:9 *769:15 0.00687654
23 *68:11 *769:15 0
24 *143:9 *769:15 0.00650163
25 *584:19 *803:cpu_mem_wdata[12] 0.000334428
26 *730:14 *769:15 0
27 *735:24 *803:cpu_mem_wdata[12] 0.0027943
28 *736:24 *803:cpu_mem_wdata[12] 0.00120613
29 *737:26 *803:cpu_mem_wdata[12] 0.00120613
30 *740:10 *769:15 0
31 *747:19 *769:13 0.00179857
32 *767:9 *769:13 0.00247201
*RES
1 *804:mem_wdata[12] *769:9 16.1511 
2 *769:9 *769:13 40.7515 
3 *769:13 *769:15 118.192 
4 *769:15 *803:cpu_mem_wdata[12] 10.6748 
*END

*D_NET *770 0.207521
*CONN
*I *803:cpu_mem_wdata[13] I *D memory_macro
*I *804:mem_wdata[13] O *D picorv32_soc
*CAP
1 *803:cpu_mem_wdata[13] 0.000162418
2 *804:mem_wdata[13] 0.00641482
3 *770:29 0.00165074
4 *770:13 0.0101006
5 *770:11 0.0150271
6 *770:11 *791:9 0.00156377
7 *770:11 *792:9 0.00245959
8 *770:11 *794:11 0
9 *770:11 *798:19 0.00348715
10 *770:29 *803:cpu_mem_wdata[14] 0.00037359
11 *770:29 *803:cpu_mem_wdata[8] 0.000266831
12 *770:29 *803:cpu_mem_wdata[9] 0.000501122
13 *803:cpu_mem_wdata[10] *770:29 7.55918e-05
14 *803:cpu_mem_wdata[11] *770:29 0.000325255
15 *804:mem_rdata[11] *770:11 0.000140897
16 *804:mem_rdata[14] *770:11 0.0231523
17 *529:28 *770:29 0.000719236
18 *584:19 *770:29 0.000849785
19 *730:12 *770:11 0.000115064
20 *732:11 *770:11 0.0168046
21 *735:24 *770:29 9.45754e-05
22 *736:24 *770:29 0.00011159
23 *738:15 *770:29 0.000627316
24 *738:21 *770:29 0.000445352
25 *738:23 *770:29 6.30931e-05
26 *739:13 *770:29 0.000745009
27 *740:8 *770:29 5.27153e-05
28 *740:10 *770:13 0.00767701
29 *741:21 *770:11 0
30 *746:9 *770:11 0.000212909
31 *754:35 *770:11 0.00591881
32 *767:13 *770:13 0.0536908
33 *768:11 *770:11 0
34 *768:15 *770:13 0.0536908
*RES
1 *804:mem_wdata[13] *770:11 49.5713 
2 *770:11 *770:13 660.089 
3 *770:13 *770:29 48.9719 
4 *770:29 *803:cpu_mem_wdata[13] 6.48214 
*END

*D_NET *771 0.208184
*CONN
*I *803:cpu_mem_wdata[14] I *D memory_macro
*I *804:mem_wdata[14] O *D picorv32_soc
*CAP
1 *803:cpu_mem_wdata[14] 0.000526748
2 *804:mem_wdata[14] 0.000684044
3 *771:13 0.0115666
4 *771:11 0.0150589
5 *771:7 0.00470312
6 *771:11 *773:9 0.0261625
7 *771:11 *788:23 0.00353027
8 *771:13 *793:13 0.0444893
9 *771:13 *796:13 0.0542295
10 *804:mem_rdata[15] *771:7 0
11 *804:mem_rdata[15] *771:11 0.000732651
12 *804:mem_rdata[22] *771:11 0.00399216
13 *529:28 *803:cpu_mem_wdata[14] 0.00103925
14 *741:13 *771:13 0
15 *748:19 *771:11 0.00375638
16 *749:19 *771:11 0.00430668
17 *767:9 *771:11 0.0217398
18 *769:13 *771:11 0.000168615
19 *769:15 *771:13 0.0111241
20 *770:29 *803:cpu_mem_wdata[14] 0.00037359
*RES
1 *804:mem_wdata[14] *771:7 13.7939 
2 *771:7 *771:11 44.3188 
3 *771:11 *771:13 667.527 
4 *771:13 *803:cpu_mem_wdata[14] 20.9643 
*END

*D_NET *772 0.133418
*CONN
*I *803:cpu_mem_wdata[15] I *D memory_macro
*I *804:mem_wdata[15] O *D picorv32_soc
*CAP
1 *803:cpu_mem_wdata[15] 0.0325824
2 *804:mem_wdata[15] 0.00274394
3 *772:19 0.0325824
4 *772:17 0.00238458
5 *772:15 0.00512853
6 *772:15 *774:15 6.43714e-06
7 *772:15 *776:15 0.00223694
8 *804:mem_rdata[11] *772:15 0.00173486
9 *804:mem_rdata[11] *772:17 0.00327215
10 *804:mem_rdata[14] *772:15 6.08015e-05
11 *804:mem_rdata[15] *772:15 0.00243439
12 *804:mem_rdata[17] *772:15 0.00127808
13 *804:mem_rdata[18] *772:15 0.000666629
14 *804:mem_rdata[20] *772:15 2.03842e-05
15 *804:mem_rdata[8] *772:15 0.00234593
16 *35:9 *803:cpu_mem_wdata[15] 0.00201927
17 *738:29 *772:15 0.0078662
18 *742:9 *772:17 0.00314157
19 *757:17 *772:15 0.00114821
20 *757:17 *772:17 0.0178063
21 *766:9 *772:17 0.0119073
22 *766:25 *772:15 5.11566e-05
*RES
1 *804:mem_wdata[15] *772:15 34.9602 
2 *772:15 *772:17 167.696 
3 *772:17 *772:19 4.5 
4 *772:19 *803:cpu_mem_wdata[15] 661.696 
*END

*D_NET *773 0.160326
*CONN
*I *803:cpu_mem_wdata[16] I *D memory_macro
*I *804:mem_wdata[16] O *D picorv32_soc
*CAP
1 *803:cpu_mem_wdata[16] 0.0327794
2 *804:mem_wdata[16] 0.000575579
3 *773:11 0.0327794
4 *773:9 0.00624122
5 *773:7 0.0068168
6 *773:9 *775:9 0.0340381
7 *773:9 *782:9 0
8 *773:9 *787:16 0.000159502
9 *773:9 *788:23 0.00368607
10 *804:mem_rdata[15] *773:9 0.000836766
11 *804:mem_rdata[22] *773:9 0.00122474
12 *804:mem_rdata[30] *773:7 0.000120003
13 *748:19 *773:9 0.000875888
14 *749:19 *773:9 0.00100758
15 *750:19 *773:9 0.00633927
16 *751:19 *773:9 0.00632337
17 *767:9 *773:9 0.000359571
18 *771:11 *773:9 0.0261625
*RES
1 *804:mem_wdata[16] *773:7 13.1868 
2 *773:7 *773:9 53.2322 
3 *773:9 *773:11 3.41 
4 *773:11 *803:cpu_mem_wdata[16] 666.098 
*END

*D_NET *774 0.148888
*CONN
*I *803:cpu_mem_wdata[17] I *D memory_macro
*I *804:mem_wdata[17] O *D picorv32_soc
*CAP
1 *803:cpu_mem_wdata[17] 0.0324332
2 *804:mem_wdata[17] 0.00169268
3 *774:19 0.0324332
4 *774:17 0.00404375
5 *774:15 0.00573643
6 *774:15 *798:19 0.000663965
7 *804:mem_rdata[11] *774:17 0.00360744
8 *804:mem_rdata[14] *774:15 0.00273923
9 *804:mem_rdata[18] *774:15 0.00649405
10 *804:mem_rdata[28] *774:15 0.00173419
11 *742:9 *774:17 0.0246402
12 *743:9 *774:17 0.0300948
13 *757:17 *774:17 0.000436838
14 *766:9 *774:17 0.0020686
15 *768:11 *774:15 6.30078e-05
16 *772:15 *774:15 6.43714e-06
*RES
1 *804:mem_wdata[17] *774:15 26.3339 
2 *774:15 *774:17 285.161 
3 *774:17 *774:19 4.5 
4 *774:19 *803:cpu_mem_wdata[17] 660.786 
*END

*D_NET *775 0.188239
*CONN
*I *803:cpu_mem_wdata[18] I *D memory_macro
*I *804:mem_wdata[18] O *D picorv32_soc
*CAP
1 *803:cpu_mem_wdata[18] 0.0326599
2 *804:mem_wdata[18] 0.000539897
3 *775:11 0.0326599
4 *775:9 0.0106277
5 *775:7 0.0111676
6 *775:9 *777:17 0.0125458
7 *775:9 *782:9 0
8 *804:mem_rdata[15] *775:9 0.00331662
9 *804:mem_rdata[22] *775:9 0.000801073
10 *804:mem_rdata[7] *775:9 0.0160128
11 *105:9 *803:cpu_mem_wdata[18] 0.0071611
12 *748:19 *775:9 0.000727305
13 *749:19 *775:9 0.000948034
14 *752:31 *775:9 0.00883559
15 *753:31 *775:9 0.00863224
16 *755:17 *775:9 0.00290583
17 *758:17 *775:9 0.00297744
18 *766:25 *775:9 0.000184502
19 *768:11 *775:9 0.0014978
20 *773:9 *775:9 0.0340381
*RES
1 *804:mem_wdata[18] *775:7 12.5796 
2 *775:7 *775:9 67.6455 
3 *775:9 *775:11 3.41 
4 *775:11 *803:cpu_mem_wdata[18] 665.491 
*END

*D_NET *776 0.179763
*CONN
*I *803:cpu_mem_wdata[19] I *D memory_macro
*I *804:mem_wdata[19] O *D picorv32_soc
*CAP
1 *803:cpu_mem_wdata[19] 0.0323363
2 *804:mem_wdata[19] 0.00207131
3 *776:19 0.0323363
4 *776:17 0.00531027
5 *776:15 0.00738158
6 *776:15 *777:17 0.000113449
7 *804:mem_rdata[14] *776:17 0.00465405
8 *804:mem_rdata[15] *776:15 0.000305991
9 *804:mem_rdata[17] *776:15 0.000598983
10 *804:mem_rdata[19] *776:15 0.000596045
11 *804:mem_rdata[20] *776:15 0.00663505
12 *104:9 *803:cpu_mem_wdata[19] 0.00914977
13 *744:9 *776:17 0.0364296
14 *746:9 *776:17 0.0387252
15 *754:35 *776:17 2.38501e-05
16 *757:17 *776:15 0.000559265
17 *757:17 *776:17 0
18 *766:9 *776:15 0.000233711
19 *766:9 *776:17 6.5298e-05
20 *772:15 *776:15 0.00223694
*RES
1 *804:mem_wdata[19] *776:15 29.3696 
2 *776:15 *776:17 367.304 
3 *776:17 *776:19 4.5 
4 *776:19 *803:cpu_mem_wdata[19] 659.875 
*END

*D_NET *777 0.184039
*CONN
*I *803:cpu_mem_wdata[1] I *D memory_macro
*I *804:mem_wdata[1] O *D picorv32_soc
*CAP
1 *803:cpu_mem_wdata[1] 0.0336989
2 *804:mem_wdata[1] 0.000833826
3 *777:19 0.0336989
4 *777:17 0.0161326
5 *777:15 0.0163851
6 *777:9 0.00376962
7 *777:7 0.00435096
8 *777:9 *793:9 0.0078751
9 *777:9 *795:11 0.00235435
10 *777:15 *795:11 0
11 *777:17 *788:23 0.0025436
12 *804:io_in[22] *777:17 0
13 *804:mem_rdata[15] *777:17 0.0016215
14 *804:mem_rdata[17] *777:17 0.000856449
15 *804:mem_rdata[19] *777:17 0.00683236
16 *804:mem_rdata[20] *777:17 0
17 *804:mem_rdata[22] *777:17 0.000936475
18 *804:mem_rdata[28] *777:17 0
19 *804:mem_rdata[29] *777:17 0.000780516
20 *804:mem_rdata[31] *777:17 0.00039888
21 *43:9 *777:9 0
22 *43:19 *777:17 0.0187262
23 *747:9 *777:9 0.0014858
24 *748:19 *777:9 0.000252779
25 *753:31 *777:17 0.000117122
26 *755:17 *777:17 0.00328222
27 *758:17 *777:17 0.00443235
28 *766:25 *777:17 0.00524898
29 *768:11 *777:17 0.00476537
30 *775:9 *777:17 0.0125458
31 *776:15 *777:17 0.000113449
*RES
1 *804:mem_wdata[1] *777:7 16.25 
2 *777:7 *777:9 105.268 
3 *777:9 *777:15 11.2225 
4 *777:15 *777:17 72.5461 
5 *777:17 *777:19 3.41 
6 *777:19 *803:cpu_mem_wdata[1] 664.884 
*END

*D_NET *778 0.248626
*CONN
*I *803:cpu_mem_wdata[20] I *D memory_macro
*I *804:mem_wdata[20] O *D picorv32_soc
*CAP
1 *803:cpu_mem_wdata[20] 0.00906554
2 *804:mem_wdata[20] 0.00105728
3 *778:11 0.00906554
4 *778:9 0.011945
5 *778:7 0.0130023
6 *803:cpu_mem_wdata[20] *787:18 0.00450517
7 *803:cpu_mem_wdata[20] *789:13 0.0541384
8 *803:cpu_mem_wdata[20] *790:13 0.0541902
9 *778:9 *780:9 0.0514466
10 *778:9 *790:9 0.00287267
11 *778:9 *796:11 0.0191135
12 *80:9 *778:9 0.0127262
13 *103:9 *803:cpu_mem_wdata[20] 0.00549771
*RES
1 *804:mem_wdata[20] *778:7 21.6868 
2 *778:7 *778:9 82.0589 
3 *778:9 *778:11 3.41 
4 *778:11 *803:cpu_mem_wdata[20] 674.598 
*END

*D_NET *779 0.215241
*CONN
*I *803:cpu_mem_wdata[21] I *D memory_macro
*I *804:mem_wdata[21] O *D picorv32_soc
*CAP
1 *803:cpu_mem_wdata[21] 0.032959
2 *804:mem_wdata[21] 0.000957427
3 *779:11 0.032959
4 *779:9 0.00949068
5 *779:7 0.0104481
6 *779:9 *780:9 0.0549257
7 *779:9 *781:9 0.0551489
8 *779:9 *787:16 0.0106494
9 *804:mem_rdata[27] *779:7 0
10 *804:mem_rdata[29] *779:7 6.12069e-05
11 *44:5 *779:7 0
12 *52:27 *803:cpu_mem_wdata[21] 0.00170255
13 *90:11 *803:cpu_mem_wdata[21] 0.000369617
14 *102:9 *803:cpu_mem_wdata[21] 0.00556988
15 *681:13 *803:cpu_mem_wdata[21] 0
16 *682:10 *803:cpu_mem_wdata[21] 0
17 *683:23 *803:cpu_mem_wdata[21] 0
*RES
1 *804:mem_wdata[21] *779:7 20.4725 
2 *779:7 *779:9 89.2655 
3 *779:9 *779:11 3.41 
4 *779:11 *803:cpu_mem_wdata[21] 673.384 
*END

*D_NET *780 0.272924
*CONN
*I *803:cpu_mem_wdata[22] I *D memory_macro
*I *804:mem_wdata[22] O *D picorv32_soc
*CAP
1 *803:cpu_mem_wdata[22] 0.00135238
2 *804:mem_wdata[22] 0.00100595
3 *780:13 0.0106557
4 *780:11 0.0093033
5 *780:9 0.00959807
6 *780:7 0.010604
7 *780:9 *781:9 0.000643885
8 *780:13 *781:13 0
9 *780:13 *782:13 0.000165098
10 *33:9 *780:13 0.00239259
11 *80:9 *780:9 0.00116632
12 *141:9 *780:13 0.00311529
13 *584:19 *803:cpu_mem_wdata[22] 0.000520315
14 *682:14 *803:cpu_mem_wdata[22] 0.00391653
15 *683:25 *803:cpu_mem_wdata[22] 0.00323343
16 *748:13 *803:cpu_mem_wdata[22] 0.000452321
17 *750:11 *803:cpu_mem_wdata[22] 0.000166337
18 *751:11 *803:cpu_mem_wdata[22] 0.000182899
19 *752:25 *803:cpu_mem_wdata[22] 6.09509e-05
20 *752:27 *780:13 0.000464996
21 *753:21 *803:cpu_mem_wdata[22] 6.42523e-05
22 *754:29 *803:cpu_mem_wdata[22] 0.000830327
23 *755:13 *780:13 0.0534531
24 *757:13 *780:13 0.0532033
25 *778:9 *780:9 0.0514466
26 *779:9 *780:9 0.0549257
*RES
1 *804:mem_wdata[22] *780:7 21.0796 
2 *780:7 *780:9 87.608 
3 *780:9 *780:11 3.41 
4 *780:11 *780:13 675.875 
5 *780:13 *803:cpu_mem_wdata[22] 15.7312 
*END

*D_NET *781 0.28734
*CONN
*I *803:cpu_mem_wdata[23] I *D memory_macro
*I *804:mem_wdata[23] O *D picorv32_soc
*CAP
1 *803:cpu_mem_wdata[23] 0.00379599
2 *804:mem_wdata[23] 0.000917502
3 *781:13 0.0124942
4 *781:11 0.00869823
5 *781:9 0.00876743
6 *781:7 0.00968493
7 *803:cpu_mem_wdata[23] *790:17 0.00192274
8 *781:9 *782:9 0.000735624
9 *781:9 *783:9 0.0559606
10 *781:9 *787:16 0.0103196
11 *781:13 *782:13 0.000254202
12 *804:mem_rdata[31] *781:7 4.83274e-05
13 *80:9 *781:9 0.000322756
14 *141:9 *781:13 0.0048007
15 *552:21 *803:cpu_mem_wdata[23] 0.000472881
16 *609:17 *803:cpu_mem_wdata[23] 0
17 *685:18 *803:cpu_mem_wdata[23] 0.00543661
18 *747:5 *781:13 0
19 *753:27 *781:13 0.0535859
20 *754:31 *781:13 0.0530688
21 *758:13 *781:13 0.000260127
22 *779:9 *781:9 0.0551489
23 *780:9 *781:9 0.000643885
24 *780:13 *781:13 0
*RES
1 *804:mem_wdata[23] *781:7 19.8654 
2 *781:7 *781:9 89.6979 
3 *781:9 *781:11 3.41 
4 *781:11 *781:13 664.946 
5 *781:13 *803:cpu_mem_wdata[23] 28.8033 
*END

*D_NET *782 0.275601
*CONN
*I *803:cpu_mem_wdata[24] I *D memory_macro
*I *804:mem_wdata[24] O *D picorv32_soc
*CAP
1 *803:cpu_mem_wdata[24] 0.00413216
2 *804:mem_wdata[24] 0.000868752
3 *782:13 0.012576
4 *782:11 0.00844388
5 *782:9 0.0147351
6 *782:7 0.0156039
7 *803:cpu_mem_wdata[24] *803:cpu_mem_wdata[25] 0.0124773
8 *782:9 *783:9 0.0570547
9 *782:9 *787:16 0.0124324
10 *804:mem_rdata[24] *782:9 0.00193639
11 *804:mem_rdata[25] *782:9 0.000117859
12 *141:9 *782:13 0.005745
13 *531:14 *803:cpu_mem_wdata[24] 0.00232047
14 *747:19 *782:9 0.0160341
15 *752:27 *782:13 0.0533286
16 *753:27 *782:13 0.0533067
17 *767:9 *782:9 0
18 *769:13 *782:9 0.00333282
19 *773:9 *782:9 0
20 *775:9 *782:9 0
21 *780:13 *782:13 0.000165098
22 *781:9 *782:9 0.000735624
23 *781:13 *782:13 0.000254202
*RES
1 *804:mem_wdata[24] *782:7 18.6511 
2 *782:7 *782:9 91.2834 
3 *782:9 *782:11 3.41 
4 *782:11 *782:13 660.089 
5 *782:13 *803:cpu_mem_wdata[24] 38.0673 
*END

*D_NET *783 0.27035
*CONN
*I *803:cpu_mem_wdata[25] I *D memory_macro
*I *804:mem_wdata[25] O *D picorv32_soc
*CAP
1 *803:cpu_mem_wdata[25] 0.00431989
2 *804:mem_wdata[25] 0.000873434
3 *783:13 0.0263532
4 *783:11 0.0220333
5 *783:9 0.00906473
6 *783:7 0.00993817
7 *803:cpu_mem_wdata[25] *787:22 0.0172801
8 *803:cpu_mem_wdata[25] *789:17 4.08342e-05
9 *783:9 *787:16 0.0113403
10 *783:13 *787:18 0.012943
11 *783:13 *790:13 0.0301263
12 *803:cpu_mem_wdata[24] *803:cpu_mem_wdata[25] 0.0124773
13 *804:mem_rdata[25] *783:9 0.000112964
14 *804:mem_rdata[26] *783:9 0
15 *80:9 *783:9 0.000431491
16 *531:14 *803:cpu_mem_wdata[25] 0
17 *781:9 *783:9 0.0559606
18 *782:9 *783:9 0.0570547
*RES
1 *804:mem_wdata[25] *783:7 19.2582 
2 *783:7 *783:9 90.9231 
3 *783:9 *783:11 3.41 
4 *783:11 *783:13 661.304 
5 *783:13 *803:cpu_mem_wdata[25] 45.0272 
*END

*D_NET *784 0.206922
*CONN
*I *803:cpu_mem_wdata[26] I *D memory_macro
*I *804:mem_wdata[26] O *D picorv32_soc
*CAP
1 *803:cpu_mem_wdata[26] 0.00017439
2 *804:mem_wdata[26] 0.0050524
3 *784:27 0.0078193
4 *784:25 0.00764491
5 *784:23 0.0319373
6 *784:21 0.0319373
7 *784:19 0.00740062
8 *784:17 0.012453
9 *784:17 *785:12 0.0109736
10 *784:17 *786:12 1.94054e-05
11 *784:17 *786:14 0.00345516
12 *784:17 *799:19 0.00236161
13 *784:19 *785:14 0.0157372
14 *784:19 *786:14 0.0229026
15 *784:19 *799:19 0.000435631
16 *784:27 *786:22 0.0250289
17 *804:mem_rdata[10] *784:19 0.00395647
18 *804:mem_rdata[12] *784:17 0.000168408
19 *804:mem_rdata[16] *784:17 0.00108102
20 *546:19 *784:27 0.00428785
21 *546:31 *784:27 0.000721722
22 *726:11 *784:19 0.00683376
23 *727:16 *784:17 0.00323381
24 *741:21 *784:17 0.00130593
25 *744:5 *784:23 0
26 *759:17 *784:17 0
*RES
1 *804:mem_wdata[26] *784:17 42.3346 
2 *784:17 *784:19 332.804 
3 *784:19 *784:21 4.5 
4 *784:21 *784:23 652.804 
5 *784:23 *784:25 4.5 
6 *784:25 *784:27 237.107 
7 *784:27 *803:cpu_mem_wdata[26] 7.14286 
*END

*D_NET *785 0.189525
*CONN
*I *803:cpu_mem_wdata[27] I *D memory_macro
*I *804:mem_wdata[27] O *D picorv32_soc
*CAP
1 *803:cpu_mem_wdata[27] 0.00568731
2 *804:mem_wdata[27] 0.00173351
3 *785:24 0.00568731
4 *785:22 0.0123111
5 *785:20 0.0123111
6 *785:18 0.0265151
7 *785:16 0.0265151
8 *785:14 0.0117235
9 *785:12 0.013457
10 *785:12 *786:12 0.00152604
11 *785:12 *799:19 0.0125538
12 *785:14 *786:14 0.0018019
13 *785:14 *791:9 0.00113568
14 *785:14 *792:9 0
15 *785:14 *798:11 0.00285962
16 *107:9 *785:18 0.00302639
17 *726:11 *785:14 0.00678757
18 *727:16 *785:12 0.00280846
19 *729:11 *785:14 0.0120211
20 *731:21 *785:14 0.00235273
21 *746:5 *785:18 0
22 *784:17 *785:12 0.0109736
23 *784:19 *785:14 0.0157372
*RES
1 *804:mem_wdata[27] *785:12 31.7089 
2 *785:12 *785:14 412.893 
3 *785:14 *785:16 4.5 
4 *785:16 *785:18 542.607 
5 *785:18 *785:20 4.5 
6 *785:20 *785:22 231.357 
7 *785:22 *785:24 4.5 
8 *785:24 *803:cpu_mem_wdata[27] 113.446 
*END

*D_NET *786 0.20783
*CONN
*I *803:cpu_mem_wdata[28] I *D memory_macro
*I *804:mem_wdata[28] O *D picorv32_soc
*CAP
1 *803:cpu_mem_wdata[28] 0.000153836
2 *804:mem_wdata[28] 0.000918349
3 *786:22 0.0169162
4 *786:20 0.0167624
5 *786:18 0.0320863
6 *786:16 0.0320863
7 *786:14 0.0115439
8 *786:12 0.0124622
9 *786:12 *799:19 0.000608369
10 *786:14 *799:11 0.00967184
11 *786:18 *801:18 0
12 *804:mem_rdata[10] *786:14 0.00418916
13 *804:mem_rdata[12] *786:14 0.000757739
14 *804:mem_rdata[4] *786:14 0.000113332
15 *804:mem_rdata[9] *786:14 0.000267313
16 *73:9 *786:18 0.00053249
17 *588:35 *786:22 0
18 *614:17 *786:22 0.00968112
19 *725:11 *786:14 0.0016722
20 *726:19 *786:14 0.00212059
21 *727:16 *786:12 0.000552638
22 *759:17 *786:12 0
23 *768:15 *786:18 0
24 *784:17 *786:12 1.94054e-05
25 *784:17 *786:14 0.00345516
26 *784:19 *786:14 0.0229026
27 *784:27 *786:22 0.0250289
28 *785:12 *786:12 0.00152604
29 *785:14 *786:14 0.0018019
*RES
1 *804:mem_wdata[28] *786:12 15.9831 
2 *786:12 *786:14 356.625 
3 *786:14 *786:16 4.5 
4 *786:16 *786:18 652.804 
5 *786:18 *786:20 4.5 
6 *786:20 *786:22 416.589 
7 *786:22 *803:cpu_mem_wdata[28] 6.83929 
*END

*D_NET *787 0.32982
*CONN
*I *803:cpu_mem_wdata[29] I *D memory_macro
*I *804:mem_wdata[29] O *D picorv32_soc
*CAP
1 *803:cpu_mem_wdata[29] 0.000591396
2 *804:mem_wdata[29] 0.046952
3 *787:22 0.00785827
4 *787:20 0.00726687
5 *787:18 0.0324668
6 *787:16 0.0794188
7 *787:16 *788:23 0.00802188
8 *787:16 *799:19 0.000395917
9 *787:18 *789:13 0.00900607
10 *787:18 *790:13 0.00626533
11 *787:22 *789:17 0.031373
12 *803:cpu_mem_wdata[20] *787:18 0.00450517
13 *803:cpu_mem_wdata[25] *787:22 0.0172801
14 *804:mem_rdata[15] *787:16 0.00130933
15 *804:mem_rdata[23] *787:16 0.00147529
16 *804:mem_rdata[24] *787:16 0.00214403
17 *804:mem_rdata[25] *787:16 0.00104815
18 *32:9 *787:18 0.00160291
19 *103:9 *787:18 0.00851884
20 *117:11 *787:18 0.00115256
21 *531:14 *787:22 0
22 *747:19 *787:16 0.00332302
23 *759:17 *787:16 0
24 *773:9 *787:16 0.000159502
25 *779:9 *787:16 0.0106494
26 *781:9 *787:16 0.0103196
27 *782:9 *787:16 0.0124324
28 *783:9 *787:16 0.0113403
29 *783:13 *787:18 0.012943
*RES
1 *804:mem_wdata[29] *787:16 22.3596 
2 *787:16 *787:18 116.168 
3 *787:18 *787:20 3.41 
4 *787:20 *787:22 49.0163 
5 *787:22 *803:cpu_mem_wdata[29] 13.7939 
*END

*D_NET *788 0.221573
*CONN
*I *803:cpu_mem_wdata[2] I *D memory_macro
*I *804:mem_wdata[2] O *D picorv32_soc
*CAP
1 *803:cpu_mem_wdata[2] 0.0013863
2 *804:mem_wdata[2] 0.022465
3 *788:25 0.0304921
4 *788:23 0.0515708
5 *803:cpu_mem_wdata[2] *803:cpu_mem_wdata[3] 0.00389686
6 *788:23 *795:11 0.00197168
7 wbs_dat_o[10] *788:25 0
8 *803:cpu_mem_addr[2] *803:cpu_mem_wdata[2] 0.000244652
9 *804:mem_rdata[15] *788:23 0.0116529
10 *804:mem_rdata[22] *788:23 0.00245922
11 *804:mem_rdata[26] *788:23 0.000848887
12 *804:mem_rdata[27] *788:23 0.00136274
13 *804:mem_rdata[29] *788:23 0.00179364
14 *804:mem_rdata[31] *788:23 0.00163124
15 *97:8 *788:25 0.00243083
16 *126:19 *788:23 0.000298912
17 *126:19 *788:25 0.000302057
18 *127:9 *788:25 0
19 *131:9 *788:23 0.000270672
20 *131:9 *788:25 0.0270794
21 *545:17 *788:25 0.000392551
22 *545:19 *803:cpu_mem_wdata[2] 0
23 *546:19 *803:cpu_mem_wdata[2] 0
24 *725:23 *788:25 0.0123937
25 *727:18 *788:25 0.001558
26 *730:12 *788:23 0.000142445
27 *732:11 *788:23 0.000268683
28 *745:10 *788:25 0
29 *756:16 *803:cpu_mem_wdata[2] 2.81967e-05
30 *766:25 *788:23 0.0226754
31 *767:9 *788:23 0.0020893
32 *769:13 *788:23 0.00208487
33 *771:11 *788:23 0.00353027
34 *773:9 *788:23 0.00368607
35 *777:17 *788:23 0.0025436
36 *787:16 *788:23 0.00802188
*RES
1 *804:mem_wdata[2] *788:23 21.7792 
2 *788:23 *788:25 115.933 
3 *788:25 *803:cpu_mem_wdata[2] 13.0287 
*END

*D_NET *789 0.330526
*CONN
*I *803:cpu_mem_wdata[30] I *D memory_macro
*I *804:mem_wdata[30] O *D picorv32_soc
*CAP
1 *803:cpu_mem_wdata[30] 0.000534793
2 *804:mem_wdata[30] 0.00114091
3 *789:17 0.00647153
4 *789:15 0.00593674
5 *789:13 0.0207158
6 *789:11 0.0207158
7 *789:9 0.0156764
8 *789:7 0.0168173
9 *789:9 *790:9 0.0623002
10 *789:9 *797:11 0.00376068
11 *789:9 *800:9 0.0342836
12 *789:13 *790:13 0.000130158
13 *789:17 *790:17 0.0350376
14 *803:cpu_mem_wdata[20] *789:13 0.0541384
15 *803:cpu_mem_wdata[25] *789:17 4.08342e-05
16 *103:9 *789:13 0.00981349
17 *531:14 *789:17 0
18 *552:21 *789:17 0.0026326
19 *609:17 *789:17 0
20 *787:18 *789:13 0.00900607
21 *787:22 *789:17 0.031373
*RES
1 *804:mem_wdata[30] *789:7 25.3296 
2 *789:7 *789:9 99.2828 
3 *789:9 *789:11 3.41 
4 *789:11 *789:13 668.589 
5 *789:13 *789:15 3.41 
6 *789:15 *789:17 54.8897 
7 *789:17 *803:cpu_mem_wdata[30] 13.1868 
*END

*D_NET *790 0.340033
*CONN
*I *803:cpu_mem_wdata[31] I *D memory_macro
*I *804:mem_wdata[31] O *D picorv32_soc
*CAP
1 *803:cpu_mem_wdata[31] 0.000503698
2 *804:mem_wdata[31] 0.00109406
3 *790:17 0.00751992
4 *790:15 0.00701622
5 *790:13 0.010345
6 *790:11 0.010345
7 *790:9 0.0183415
8 *790:7 0.0194356
9 *790:9 *796:11 0.00427973
10 *790:9 *800:9 0.00055444
11 *803:cpu_mem_wdata[20] *790:13 0.0541902
12 *803:cpu_mem_wdata[23] *790:17 0.00192274
13 *80:9 *790:9 0.0055366
14 *80:17 *790:9 0.0136471
15 *103:9 *790:13 0.00508196
16 *531:14 *790:17 0
17 *552:21 *790:17 0.00299485
18 *609:17 *790:17 0
19 *685:18 *790:17 0.0335689
20 *755:9 *790:17 0.00547536
21 *757:9 *790:17 0.000458692
22 *758:9 *790:17 0.000989234
23 *778:9 *790:9 0.00287267
24 *783:13 *790:13 0.0301263
25 *787:18 *790:13 0.00626533
26 *789:9 *790:9 0.0623002
27 *789:13 *790:13 0.000130158
28 *789:17 *790:17 0.0350376
*RES
1 *804:mem_wdata[31] *790:7 24.7225 
2 *790:7 *790:9 101.157 
3 *790:9 *790:11 3.41 
4 *790:11 *790:13 668.589 
5 *790:13 *790:15 3.41 
6 *790:15 *790:17 60.2227 
7 *790:17 *803:cpu_mem_wdata[31] 12.5796 
*END

*D_NET *791 0.253722
*CONN
*I *803:cpu_mem_wdata[3] I *D memory_macro
*I *804:mem_wdata[3] O *D picorv32_soc
*CAP
1 *803:cpu_mem_wdata[3] 0.00538135
2 *804:mem_wdata[3] 8.32118e-05
3 *791:13 0.0147294
4 *791:11 0.00934803
5 *791:9 0.00998527
6 *791:7 0.0100685
7 *791:9 *798:19 0.0393053
8 *791:13 *798:23 0
9 *791:13 *799:27 0.00370874
10 *803:cpu_mem_addr[2] *803:cpu_mem_wdata[3] 9.46726e-05
11 *803:cpu_mem_wdata[2] *803:cpu_mem_wdata[3] 0.00389686
12 *83:8 *791:9 9.12147e-06
13 *127:9 *791:13 0.00242443
14 *546:19 *803:cpu_mem_wdata[3] 0
15 *550:19 *803:cpu_mem_wdata[3] 0
16 *584:19 *803:cpu_mem_wdata[3] 0.000206042
17 *614:17 *803:cpu_mem_wdata[3] 0
18 *725:19 *791:9 0.0416424
19 *726:19 *791:9 0.00103561
20 *726:25 *791:9 0.000109291
21 *726:27 *791:13 0.0534162
22 *729:11 *791:9 0.000125826
23 *730:12 *791:9 0.00153834
24 *731:21 *791:9 0.00306382
25 *732:11 *791:9 0.00765535
26 *759:13 *791:13 0.0431953
27 *770:11 *791:9 0.00156377
28 *785:14 *791:9 0.00113568
*RES
1 *804:mem_wdata[3] *791:7 4.68679 
2 *791:7 *791:9 79.8248 
3 *791:9 *791:11 3.41 
4 *791:11 *791:13 660.089 
5 *791:13 *803:cpu_mem_wdata[3] 24.5233 
*END

*D_NET *792 0.232201
*CONN
*I *803:cpu_mem_wdata[4] I *D memory_macro
*I *804:mem_wdata[4] O *D picorv32_soc
*CAP
1 *803:cpu_mem_wdata[4] 0.00598522
2 *804:mem_wdata[4] 0.000166547
3 *792:33 0.0114036
4 *792:17 0.00937363
5 *792:15 0.00395521
6 *792:13 0.00702561
7 *792:11 0.00702561
8 *792:9 0.00379288
9 *792:7 0.00395942
10 *792:9 *798:11 0
11 *792:13 *793:13 0.0438426
12 *792:13 *794:13 0.0438426
13 *792:17 *793:17 0.000187828
14 *792:17 *794:17 0.00660901
15 *792:33 *794:17 0.000459311
16 *803:cpu_mem_addr[6] *792:33 0.000452305
17 *530:12 *792:33 4.0438e-05
18 *531:12 *792:33 4.0438e-05
19 *728:11 *792:9 0
20 *728:45 *792:33 0.00663059
21 *729:19 *792:17 0.0244683
22 *731:27 *792:33 0.00160701
23 *754:35 *792:9 0.0121876
24 *760:17 *792:17 0.0271741
25 *762:9 *792:33 2.83562e-06
26 *763:19 *792:33 2.51214e-05
27 *769:15 *792:13 0.00948413
28 *770:11 *792:9 0.00245959
29 *785:14 *792:9 0
*RES
1 *804:mem_wdata[4] *792:7 7.14286 
2 *792:7 *792:9 115.536 
3 *792:9 *792:11 4.5 
4 *792:11 *792:13 538.964 
5 *792:13 *792:15 4.5 
6 *792:15 *792:17 260.518 
7 *792:17 *792:33 35.0867 
8 *792:33 *803:cpu_mem_wdata[4] 120.884 
*END

*D_NET *793 0.231036
*CONN
*I *803:cpu_mem_wdata[5] I *D memory_macro
*I *804:mem_wdata[5] O *D picorv32_soc
*CAP
1 *803:cpu_mem_wdata[5] 0.00577405
2 *804:mem_wdata[5] 0.000810108
3 *793:27 0.0120901
4 *793:17 0.0122758
5 *793:15 0.00595979
6 *793:13 0.00745523
7 *793:11 0.00745523
8 *793:9 0.00276092
9 *793:7 0.00357103
10 *793:13 *794:13 0.000139582
11 *793:13 *796:13 3.12555e-05
12 *803:cpu_mem_addr[6] *793:27 0.00665102
13 *43:9 *793:9 0
14 *729:19 *793:17 0.000340889
15 *741:13 *793:13 0
16 *747:9 *793:9 0.0138071
17 *761:15 *793:27 0.0141551
18 *761:17 *793:17 0.017972
19 *762:9 *793:17 0.00762412
20 *764:11 *793:27 0.00189471
21 *765:11 *793:27 0.00049672
22 *767:9 *793:9 0.0031162
23 *769:15 *793:13 0.01026
24 *771:13 *793:13 0.0444893
25 *777:9 *793:9 0.0078751
26 *792:13 *793:13 0.0438426
27 *792:17 *793:17 0.000187828
*RES
1 *804:mem_wdata[5] *793:7 15.9464 
2 *793:7 *793:9 129.911 
3 *793:9 *793:11 4.5 
4 *793:11 *793:13 548.679 
5 *793:13 *793:15 4.5 
6 *793:15 *793:17 180.018 
7 *793:17 *793:27 42.1784 
8 *793:27 *803:cpu_mem_wdata[5] 116.634 
*END

*D_NET *794 0.232305
*CONN
*I *803:cpu_mem_wdata[6] I *D memory_macro
*I *804:mem_wdata[6] O *D picorv32_soc
*CAP
1 *803:cpu_mem_wdata[6] 0.00596756
2 *804:mem_wdata[6] 0.00346853
3 *794:19 0.00596756
4 *794:17 0.00594935
5 *794:15 0.00594935
6 *794:13 0.00965286
7 *794:11 0.0131214
8 *803:cpu_mem_addr[6] *794:17 0.00317992
9 *804:mem_rdata[11] *794:11 0.000724391
10 *804:mem_rdata[15] *794:11 0.00303656
11 *804:mem_rdata[8] *794:11 0.014068
12 *79:10 *794:17 0.000297265
13 *728:19 *794:17 0.000605038
14 *729:19 *794:17 0.00548814
15 *731:27 *794:17 0.0299014
16 *738:29 *794:11 0.0154581
17 *741:13 *794:13 0.0168192
18 *757:17 *794:11 0.000233689
19 *762:9 *794:17 0.0324145
20 *768:11 *794:11 0.00028208
21 *769:15 *794:13 0.00866991
22 *770:11 *794:11 0
23 *792:13 *794:13 0.0438426
24 *792:17 *794:17 0.00660901
25 *792:33 *794:17 0.000459311
26 *793:13 *794:13 0.000139582
*RES
1 *804:mem_wdata[6] *794:11 38.5125 
2 *794:11 *794:13 542.911 
3 *794:13 *794:15 3.41 
4 *794:15 *794:17 51.6467 
5 *794:17 *794:19 3.41 
6 *794:19 *803:cpu_mem_wdata[6] 119.67 
*END

*D_NET *795 0.219181
*CONN
*I *803:cpu_mem_wdata[7] I *D memory_macro
*I *804:mem_wdata[7] O *D picorv32_soc
*CAP
1 *803:cpu_mem_wdata[7] 0.00534259
2 *804:mem_wdata[7] 0.00331894
3 *795:19 0.0145131
4 *795:13 0.0173233
5 *795:11 0.0114718
6 *795:19 *801:22 0.0270366
7 *803:cpu_mem_addr[6] *795:19 0.00220227
8 *804:mem_rdata[15] *795:11 0.00062804
9 *728:15 *795:13 0.043578
10 *729:15 *795:13 3.08351e-05
11 *730:14 *795:13 0.0100251
12 *735:30 *795:13 0.0445335
13 *736:26 *795:13 0.000220982
14 *738:23 *795:13 3.91324e-05
15 *767:9 *795:11 0.0172969
16 *769:13 *795:11 0.0172934
17 *777:9 *795:11 0.00235435
18 *777:15 *795:11 0
19 *788:23 *795:11 0.00197168
*RES
1 *804:mem_wdata[7] *795:11 45.4181 
2 *795:11 *795:13 560.518 
3 *795:13 *795:19 49.0981 
4 *795:19 *803:cpu_mem_wdata[7] 107.527 
*END

*D_NET *796 0.184873
*CONN
*I *803:cpu_mem_wdata[8] I *D memory_macro
*I *804:mem_wdata[8] O *D picorv32_soc
*CAP
1 *803:cpu_mem_wdata[8] 0.00660575
2 *804:mem_wdata[8] 0.00122008
3 *796:13 0.0281809
4 *796:11 0.026876
5 *796:7 0.00652089
6 *803:cpu_mem_wdata[8] *803:cpu_mem_wdata[9] 0.00906634
7 *803:cpu_mem_wdata[10] *803:cpu_mem_wdata[8] 0.00189757
8 *803:cpu_mem_wdata[11] *803:cpu_mem_wdata[8] 0.00583903
9 *584:19 *803:cpu_mem_wdata[8] 0.000772042
10 *729:15 *796:13 0
11 *735:24 *803:cpu_mem_wdata[8] 0.00179169
12 *736:24 *803:cpu_mem_wdata[8] 0.00188679
13 *738:15 *803:cpu_mem_wdata[8] 0.00175286
14 *738:21 *803:cpu_mem_wdata[8] 0.00136539
15 *762:13 *796:13 0
16 *769:15 *796:13 0.0131768
17 *770:29 *803:cpu_mem_wdata[8] 0.000266831
18 *771:13 *796:13 0.0542295
19 *778:9 *796:11 0.0191135
20 *790:9 *796:11 0.00427973
21 *793:13 *796:13 3.12555e-05
*RES
1 *804:mem_wdata[8] *796:7 22.2939 
2 *796:7 *796:11 33.8691 
3 *796:11 *796:13 677.696 
4 *796:13 *803:cpu_mem_wdata[8] 41.6752 
*END

*D_NET *797 0.132596
*CONN
*I *803:cpu_mem_wdata[9] I *D memory_macro
*I *804:mem_wdata[9] O *D picorv32_soc
*CAP
1 *803:cpu_mem_wdata[9] 0.00410908
2 *804:mem_wdata[9] 0.00145799
3 *797:13 0.0376767
4 *797:11 0.0406783
5 *797:7 0.00856871
6 *797:11 *800:9 0.0114697
7 *803:cpu_mem_wdata[10] *803:cpu_mem_wdata[9] 0.00163082
8 *803:cpu_mem_wdata[11] *803:cpu_mem_wdata[9] 0.00128474
9 *803:cpu_mem_wdata[12] *803:cpu_mem_wdata[9] 0.00063716
10 *803:cpu_mem_wdata[8] *803:cpu_mem_wdata[9] 0.00906634
11 *43:5 *797:13 0.000213941
12 *584:19 *803:cpu_mem_wdata[9] 0.00663934
13 *735:24 *803:cpu_mem_wdata[9] 0.00165076
14 *736:24 *803:cpu_mem_wdata[9] 0.00119323
15 *737:26 *803:cpu_mem_wdata[9] 0.00137419
16 *737:28 *797:13 0
17 *738:21 *803:cpu_mem_wdata[9] 0.000439045
18 *739:13 *803:cpu_mem_wdata[9] 0.000243873
19 *739:15 *797:13 0
20 *763:25 *797:13 0
21 *770:29 *803:cpu_mem_wdata[9] 0.000501122
22 *789:9 *797:11 0.00376068
*RES
1 *804:mem_wdata[9] *797:7 26.5439 
2 *797:7 *797:11 33.0043 
3 *797:11 *797:13 680.732 
4 *797:13 *803:cpu_mem_wdata[9] 34.0048 
*END

*D_NET *798 0.206235
*CONN
*I *803:cpu_mem_we[0] I *D memory_macro
*I *804:mem_we[0] O *D picorv32_soc
*CAP
1 *803:cpu_mem_we[0] 0.00446455
2 *804:mem_we[0] 0.000258722
3 *798:23 0.0265739
4 *798:21 0.0221093
5 *798:19 0.0106219
6 *798:17 0.010717
7 *798:11 0.00531687
8 *798:9 0.00548054
9 *803:cpu_mem_we[0] *803:cpu_mem_we[1] 0
10 *798:23 *799:27 0.0294628
11 *803:cpu_mem_addr[1] *803:cpu_mem_we[0] 0
12 *804:io_in[22] *798:19 0.00195177
13 *804:mem_rdata[14] *798:19 0.000289486
14 *804:mem_rdata[28] *798:19 0.000366807
15 *804:mem_rdata[30] *798:19 0.0145487
16 *46:15 *798:23 0.000445008
17 *83:8 *798:19 3.91821e-05
18 *127:9 *798:23 0.00675678
19 *609:17 *803:cpu_mem_we[0] 4.8871e-05
20 *725:19 *798:11 0.000489997
21 *728:11 *798:11 0.00647405
22 *729:11 *798:11 0.000854543
23 *730:12 *798:11 0.00189006
24 *731:21 *798:11 0.000496389
25 *745:8 *803:cpu_mem_we[0] 0
26 *745:10 *798:23 0.0101492
27 *754:35 *798:11 0
28 *754:35 *798:19 0.000112662
29 *770:11 *798:19 0.00348715
30 *774:15 *798:19 0.000663965
31 *785:14 *798:11 0.00285962
32 *791:9 *798:19 0.0393053
33 *791:13 *798:23 0
34 *792:9 *798:11 0
*RES
1 *804:mem_we[0] *798:9 6.78571 
2 *798:9 *798:11 149.214 
3 *798:11 *798:17 9.40107 
4 *798:17 *798:19 63.2495 
5 *798:19 *798:21 3.41 
6 *798:21 *798:23 655.839 
7 *798:23 *803:cpu_mem_we[0] 21.3932 
*END

*D_NET *799 0.204175
*CONN
*I *803:cpu_mem_we[1] I *D memory_macro
*I *804:mem_we[1] O *D picorv32_soc
*CAP
1 *803:cpu_mem_we[1] 0.000742089
2 *804:mem_we[1] 0.000240354
3 *799:27 0.012526
4 *799:25 0.0146573
5 *799:19 0.0113659
6 *799:17 0.00858123
7 *799:11 0.0012032
8 *799:9 0.00135478
9 *803:cpu_mem_addr[1] *803:cpu_mem_we[1] 0.000190511
10 *803:cpu_mem_we[0] *803:cpu_mem_we[1] 0
11 *804:io_in[15] *799:19 4.98422e-05
12 *804:io_in[23] *799:25 0.00305252
13 *804:mem_rdata[10] *799:11 0.00178435
14 *804:mem_rdata[10] *799:19 0.00404634
15 *804:mem_rdata[12] *799:19 0.0016688
16 *804:mem_rdata[16] *799:19 0.00108102
17 *804:mem_rdata[4] *799:11 0.0001051
18 *112:8 *799:19 4.98422e-05
19 *127:9 *799:27 0.00399274
20 *129:25 *799:25 0
21 *609:17 *803:cpu_mem_we[1] 4.6122e-05
22 *725:11 *799:11 0.00967568
23 *726:19 *799:19 0.0369248
24 *726:19 *799:25 0.000606353
25 *726:25 *799:25 0.000654178
26 *727:16 *799:25 0.00118299
27 *745:10 *799:27 0.00507247
28 *759:13 *799:27 0.0241218
29 *759:17 *799:19 0
30 *759:17 *799:25 0
31 *784:17 *799:19 0.00236161
32 *784:19 *799:19 0.000435631
33 *785:12 *799:19 0.0125538
34 *786:12 *799:19 0.000608369
35 *786:14 *799:11 0.00967184
36 *787:16 *799:19 0.000395917
37 *791:13 *799:27 0.00370874
38 *798:23 *799:27 0.0294628
*RES
1 *804:mem_we[1] *799:9 6.48214 
2 *799:9 *799:11 90.8929 
3 *799:11 *799:17 9.0975 
4 *799:17 *799:19 58.7453 
5 *799:19 *799:25 14.9579 
6 *799:25 *799:27 647.946 
7 *799:27 *803:cpu_mem_we[1] 14.2261 
*END

*D_NET *800 0.19753
*CONN
*I *803:cpu_mem_we[2] I *D memory_macro
*I *804:mem_we[2] O *D picorv32_soc
*CAP
1 *803:cpu_mem_we[2] 0.00592339
2 *804:mem_we[2] 0.00146
3 *800:19 0.00777829
4 *800:13 0.019637
5 *800:11 0.0177821
6 *800:9 0.0198933
7 *800:7 0.0213533
8 *80:9 *800:9 0
9 *725:23 *800:13 0
10 *727:18 *800:13 0.00960361
11 *727:24 *800:19 0.00531635
12 *756:18 *800:13 0.0424747
13 *789:9 *800:9 0.0342836
14 *790:9 *800:9 0.00055444
15 *797:11 *800:9 0.0114697
*RES
1 *804:mem_we[2] *800:7 25.9368 
2 *800:7 *800:9 81.2661 
3 *800:9 *800:11 3.41 
4 *800:11 *800:13 558.696 
5 *800:13 *800:19 15.1547 
6 *800:19 *803:cpu_mem_we[2] 120.277 
*END

*D_NET *801 0.192528
*CONN
*I *803:cpu_mem_we[3] I *D memory_macro
*I *804:mem_we[3] O *D picorv32_soc
*CAP
1 *803:cpu_mem_we[3] 0.00528249
2 *804:mem_we[3] 0.0029151
3 *801:24 0.00528249
4 *801:22 0.0210579
5 *801:20 0.0210579
6 *801:18 0.0169359
7 *801:16 0.019851
8 *804:mem_rdata[10] *801:16 4.98422e-05
9 *804:mem_rdata[12] *801:16 4.98422e-05
10 *804:mem_rdata[1] *801:16 0.000265473
11 *804:mem_rdata[4] *801:16 0
12 *804:mem_rdata[5] *801:16 0.00994965
13 *804:mem_rdata[6] *801:16 0.000349382
14 *73:9 *801:18 0.000422799
15 *727:16 *801:16 0.000158108
16 *740:10 *801:18 0.0061431
17 *741:21 *801:16 0.0113319
18 *768:15 *801:18 0.0443889
19 *786:18 *801:18 0
20 *795:19 *801:22 0.0270366
*RES
1 *804:mem_we[3] *801:16 32.9445 
2 *801:16 *801:18 545.339 
3 *801:18 *801:20 3.41 
4 *801:20 *801:22 77.3025 
5 *801:22 *801:24 3.41 
6 *801:24 *803:cpu_mem_we[3] 106.92 
*END
